#164-P-32/m1                            
   1.00000000183655     
     3.9715795912760905    0.0000000000000000    0.0000000000000000
    -1.9857897956380453    3.4394888191969124    0.0000000000000000
     0.0000000000000000    0.0000000000000000    4.8704237691628229
   Fe   Si
     5     1
Direct
  0.0000000000000000  0.0000000000000000  0.0000000000000000
  0.3333299999999966  0.6666700000000034  0.8315483802213706
  0.6666600000000003  0.3333299999999966  0.1684516197786294
  0.3333299999999966  0.6666700000000034  0.3327503602060276
  0.6666600000000003  0.3333299999999966  0.6672496397939724
  0.0000000000000000  0.0000000000000000  0.5000000000000000
 
  0.00000000E+00  0.00000000E+00  0.00000000E+00
  0.00000000E+00  0.00000000E+00  0.00000000E+00
  0.00000000E+00  0.00000000E+00  0.00000000E+00
  0.00000000E+00  0.00000000E+00  0.00000000E+00
  0.00000000E+00  0.00000000E+00  0.00000000E+00
  0.00000000E+00  0.00000000E+00  0.00000000E+00
