#10-P12/m1                              
  0.999999998163986     
     2.5068387176897606    0.0000000000000000    0.0008681557781761
     0.0000000000000000    3.9618899799953535    0.0000000000000000
    -0.0297265195991140    0.0000000000000000    6.8592992833731126
   Fe   Si
     5     1
Direct
  0.3345595106134525  0.0000000000000000  0.1654543758886931
  0.6654404893865475  0.0000000000000000  0.8345456241113069
  0.6530738863095280  0.5000000000000000  0.3322446566975970
  0.3469261136904720  0.5000000000000000  0.6677553433024030
  0.0000000000000000  0.0000000000000000  0.5000000000000000
  0.0000000000000000  0.5000000000000000  0.0000000000000000
 
  0.00000000E+00  0.00000000E+00  0.00000000E+00
  0.00000000E+00  0.00000000E+00  0.00000000E+00
  0.00000000E+00  0.00000000E+00  0.00000000E+00
  0.00000000E+00  0.00000000E+00  0.00000000E+00
  0.00000000E+00  0.00000000E+00  0.00000000E+00
  0.00000000E+00  0.00000000E+00  0.00000000E+00
