#65-C2/m2/m2/m                          
   1.00000000075982     
     2.8174448144282027    0.0000000000000000    0.0000000000000000
     0.0000000000000000   11.9436595780671890    0.0000000000000000
     0.0000000000000000    0.0000000000000000    3.9371368191396092
   Fe   Si
    10     2
Direct
  0.0000000000000000  0.1666376598666517  0.5000000000000000
  0.0000000000000000  0.8333623401333483  0.5000000000000000
  0.5000000000000000  0.6666376598666517  0.5000000000000000
  0.5000000000000000  0.3333623401333483  0.5000000000000000
  0.0000000000000000  0.3346697007281279  0.0000000000000000
  0.0000000000000000  0.6653302992718721  0.0000000000000000
  0.5000000000000000  0.8346697007281279  0.0000000000000000
  0.5000000000000000  0.1653302992718721  0.0000000000000000
  0.0000000000000000  0.0000000000000000  0.0000000000000000
  0.5000000000000000  0.5000000000000000  0.0000000000000000
  0.5000000000000000  0.0000000000000000  0.5000000000000000
  0.0000000000000000  0.5000000000000000  0.5000000000000000
 
  0.00000000E+00  0.00000000E+00  0.00000000E+00
  0.00000000E+00  0.00000000E+00  0.00000000E+00
  0.00000000E+00  0.00000000E+00  0.00000000E+00
  0.00000000E+00  0.00000000E+00  0.00000000E+00
  0.00000000E+00  0.00000000E+00  0.00000000E+00
  0.00000000E+00  0.00000000E+00  0.00000000E+00
  0.00000000E+00  0.00000000E+00  0.00000000E+00
  0.00000000E+00  0.00000000E+00  0.00000000E+00
  0.00000000E+00  0.00000000E+00  0.00000000E+00
  0.00000000E+00  0.00000000E+00  0.00000000E+00
  0.00000000E+00  0.00000000E+00  0.00000000E+00
  0.00000000E+00  0.00000000E+00  0.00000000E+00
