#127 (P 4/m b m)                        
   8.09464000430675     
     0.9982576530644561    0.0000000000000000    0.0000000000000000
     0.0000000000000000    0.9982576530644561    0.0000000000000000
     0.0000000000000000    0.0000000000000000    0.5613818185039045
   Fe   Ta
    18     6
Direct
  0.8221526051860089  0.3221526051860089  0.7561013167426741
  0.3221526051860089  0.1778473948139912  0.2438986832573259
  0.6778473948139911  0.8221526051860089  0.2438986832573259
  0.1778473948139912  0.6778473948139911  0.7561013167426741
  0.1778473948139912  0.6778473948139911  0.2438986832573259
  0.6778473948139911  0.8221526051860089  0.7561013167426741
  0.3221526051860089  0.1778473948139912  0.7561013167426741
  0.8221526051860089  0.3221526051860089  0.2438986832573259
  0.2008477921432010  0.9433646488747031  0.5000000000000000
  0.7008477921432011  0.5566353511252969  0.5000000000000000
  0.2991522078567990  0.4433646488747029  0.5000000000000000
  0.7991522078567989  0.0566353511252970  0.5000000000000000
  0.5566353511252969  0.2991522078567990  0.5000000000000000
  0.0566353511252970  0.2008477921432010  0.5000000000000000
  0.9433646488747031  0.7991522078567989  0.5000000000000000
  0.4433646488747029  0.7008477921432011  0.5000000000000000
  0.5000000000000000  0.0000000000000000  0.5000000000000000
  0.0000000000000000  0.5000000000000000  0.5000000000000000
  0.6246748548956431  0.1246748548956432  0.0000000000000000
  0.1246748548956432  0.3753251451043567  0.0000000000000000
  0.8753251451043569  0.6246748548956431  0.0000000000000000
  0.3753251451043567  0.8753251451043569  0.0000000000000000
  0.5000000000000000  0.5000000000000000  0.0000000000000000
  0.0000000000000000  0.0000000000000000  0.0000000000000000
 
  0.00000000E+00  0.00000000E+00  0.00000000E+00
  0.00000000E+00  0.00000000E+00  0.00000000E+00
  0.00000000E+00  0.00000000E+00  0.00000000E+00
  0.00000000E+00  0.00000000E+00  0.00000000E+00
  0.00000000E+00  0.00000000E+00  0.00000000E+00
  0.00000000E+00  0.00000000E+00  0.00000000E+00
  0.00000000E+00  0.00000000E+00  0.00000000E+00
  0.00000000E+00  0.00000000E+00  0.00000000E+00
  0.00000000E+00  0.00000000E+00  0.00000000E+00
  0.00000000E+00  0.00000000E+00  0.00000000E+00
  0.00000000E+00  0.00000000E+00  0.00000000E+00
  0.00000000E+00  0.00000000E+00  0.00000000E+00
  0.00000000E+00  0.00000000E+00  0.00000000E+00
  0.00000000E+00  0.00000000E+00  0.00000000E+00
  0.00000000E+00  0.00000000E+00  0.00000000E+00
  0.00000000E+00  0.00000000E+00  0.00000000E+00
  0.00000000E+00  0.00000000E+00  0.00000000E+00
  0.00000000E+00  0.00000000E+00  0.00000000E+00
  0.00000000E+00  0.00000000E+00  0.00000000E+00
  0.00000000E+00  0.00000000E+00  0.00000000E+00
  0.00000000E+00  0.00000000E+00  0.00000000E+00
  0.00000000E+00  0.00000000E+00  0.00000000E+00
  0.00000000E+00  0.00000000E+00  0.00000000E+00
  0.00000000E+00  0.00000000E+00  0.00000000E+00
