#38 (A m m 2)                           
   12.6769099978737     
     0.9973959196480553    0.0000000000000000   -0.0000505954171726
    -0.0000168698817558    0.2267303083207471    0.3327791480505766
    -0.0000168698817558   -0.2267303083207471    0.3327791480505766
   Fe   Ta
    18     6
Direct
  0.1665871902149199  0.2305679293656548  0.2305679293656548
  0.8333048900175744  0.2305621142805530  0.2305621142805530
  0.4999481046190715  0.7268522997306713  0.2390341633912278
  0.4999481046190715  0.2390341633912278  0.7268522997306713
  0.8335185306468486  0.2298632639801630  0.7305744095786820
  0.1664143070107861  0.7306008893941757  0.2298938074984407
  0.8335185306468486  0.7305744095786820  0.2298632639801630
  0.1664143070107861  0.2298938074984407  0.7306008893941757
  0.3326313618920814  0.4920540586080113  0.4920540586080113
  0.6672592567064736  0.4920467000852681  0.4920467000852681
  0.9999577043878479  0.9667484870529485  0.4537381564715131
  0.9999577043878479  0.4537381564715131  0.9667484870529485
  0.4999182800933050  0.2394789481702691  0.2394789481702691
  0.3333389027365402  0.0059220018506227  0.4935846192947091
  0.6665006425660016  0.4935603758329196  0.0058612674933283
  0.3333389027365402  0.4935846192947091  0.0059220018506227
  0.6665006425660016  0.0058612674933283  0.4935603758329196
  0.9999712836162060  0.9687252857210424  0.9687252857210424
  0.4999276532522326  0.7315717047187944  0.7315717047187944
  0.8331842802102435  0.7301892400615745  0.7301892400615745
  0.1667022331157940  0.7302288701094723  0.7302288701094723
  0.9999575219144652  0.4606517244024779  0.4606517244024779
  0.3338927502828897  0.0002119507549172  0.0002119507549172
  0.6660069147496364  0.0001777321525953  0.0001777321525953
 
  0.00000000E+00  0.00000000E+00  0.00000000E+00
  0.00000000E+00  0.00000000E+00  0.00000000E+00
  0.00000000E+00  0.00000000E+00  0.00000000E+00
  0.00000000E+00  0.00000000E+00  0.00000000E+00
  0.00000000E+00  0.00000000E+00  0.00000000E+00
  0.00000000E+00  0.00000000E+00  0.00000000E+00
  0.00000000E+00  0.00000000E+00  0.00000000E+00
  0.00000000E+00  0.00000000E+00  0.00000000E+00
  0.00000000E+00  0.00000000E+00  0.00000000E+00
  0.00000000E+00  0.00000000E+00  0.00000000E+00
  0.00000000E+00  0.00000000E+00  0.00000000E+00
  0.00000000E+00  0.00000000E+00  0.00000000E+00
  0.00000000E+00  0.00000000E+00  0.00000000E+00
  0.00000000E+00  0.00000000E+00  0.00000000E+00
  0.00000000E+00  0.00000000E+00  0.00000000E+00
  0.00000000E+00  0.00000000E+00  0.00000000E+00
  0.00000000E+00  0.00000000E+00  0.00000000E+00
  0.00000000E+00  0.00000000E+00  0.00000000E+00
  0.00000000E+00  0.00000000E+00  0.00000000E+00
  0.00000000E+00  0.00000000E+00  0.00000000E+00
  0.00000000E+00  0.00000000E+00  0.00000000E+00
  0.00000000E+00  0.00000000E+00  0.00000000E+00
  0.00000000E+00  0.00000000E+00  0.00000000E+00
  0.00000000E+00  0.00000000E+00  0.00000000E+00
