#97-I422                                
   1.00000000117000     
     5.2469466930363859    0.0000000000000000   -0.0000000000000000
     0.0000000000000000    5.2469466930363859   -0.0000000000000000
     0.0000000000000000    0.0000000000000000    4.3052315338652001
   Fe   S 
     8     2
Direct
  0.8350263646753084  0.3350263646753086  0.2500000000000000
  0.8350263646753084  0.6649736353246916  0.7500000000000000
  0.1649736353246915  0.3350263646753086  0.7500000000000000
  0.1649736353246915  0.6649736353246916  0.2500000000000000
  0.6649736353246916  0.1649736353246915  0.7500000000000000
  0.6649736353246916  0.8350263646753084  0.2500000000000000
  0.3350263646753086  0.1649736353246915  0.2500000000000000
  0.3350263646753086  0.8350263646753084  0.7500000000000000
  0.0000000000000000 -0.0000000000000000  0.0000000000000000
  0.5000000000000000  0.5000000000000000  0.5000000000000000
 
  0.00000000E+00  0.00000000E+00  0.00000000E+00
  0.00000000E+00  0.00000000E+00  0.00000000E+00
  0.00000000E+00  0.00000000E+00  0.00000000E+00
  0.00000000E+00  0.00000000E+00  0.00000000E+00
  0.00000000E+00  0.00000000E+00  0.00000000E+00
  0.00000000E+00  0.00000000E+00  0.00000000E+00
  0.00000000E+00  0.00000000E+00  0.00000000E+00
  0.00000000E+00  0.00000000E+00  0.00000000E+00
  0.00000000E+00  0.00000000E+00  0.00000000E+00
  0.00000000E+00  0.00000000E+00  0.00000000E+00
