#38-Amm2                                
  0.999999999227837     
     2.9490902239766799    0.0000000000000000    0.0000000000000000
     0.0000000000000000    2.9930331916246633    0.0000000000000000
     0.0000000000000000    0.0000000000000000   13.5164258045543164
   Fe   S 
     8     2
Direct
  0.5000000000000000  0.0000000000000000  0.7064787189259194
  0.5000000000000000  0.5000000000000000  0.2064787189259194
  0.5000000000000000  0.0000000000000000  0.9061937245497430
  0.5000000000000000  0.5000000000000000  0.4061937245497430
 -0.0000000000000000  0.0000000000000000  0.3052869824013948
 -0.0000000000000000  0.5000000000000000  0.8052869824013948
 -0.0000000000000000 -0.0000000000000000  0.0960624763678822
 -0.0000000000000000  0.5000000000000000  0.5960624763678822
  0.5000000000000000  0.0000000000000000  0.5284680977550613
  0.5000000000000000  0.5000000000000000  0.0284680977550614
 
  0.00000000E+00  0.00000000E+00  0.00000000E+00
  0.00000000E+00  0.00000000E+00  0.00000000E+00
  0.00000000E+00  0.00000000E+00  0.00000000E+00
  0.00000000E+00  0.00000000E+00  0.00000000E+00
  0.00000000E+00  0.00000000E+00  0.00000000E+00
  0.00000000E+00  0.00000000E+00  0.00000000E+00
  0.00000000E+00  0.00000000E+00  0.00000000E+00
  0.00000000E+00  0.00000000E+00  0.00000000E+00
  0.00000000E+00  0.00000000E+00  0.00000000E+00
  0.00000000E+00  0.00000000E+00  0.00000000E+00
