#121-I-42m                              
  0.999999999572078     
     4.8015609954355405    0.0000000000000000    0.0000000000000000
    -0.0000000000000000    4.8015609954355405    0.0000000000000000
     0.0000000000000000    0.0000000000000000    5.2602659579976789
   Fe   S 
     8     2
Direct
  0.7023050028256563  0.7023050028256563  0.6527607863175026
  0.7023050028256563  0.2976949971743435  0.3472392136824975
  0.2976949971743435  0.7023050028256563  0.3472392136824975
  0.2976949971743435  0.2976949971743435  0.6527607863175026
  0.2023050028256565  0.2023050028256565  0.1527607863175025
  0.2023050028256565  0.7976949971743437  0.8472392136824974
  0.7976949971743437  0.2023050028256565  0.8472392136824974
  0.7976949971743437  0.7976949971743437  0.1527607863175025
 -0.0000000000000000  0.0000000000000000  0.5000000000000000
  0.5000000000000000  0.5000000000000000 -0.0000000000000000
 
  0.00000000E+00  0.00000000E+00  0.00000000E+00
  0.00000000E+00  0.00000000E+00  0.00000000E+00
  0.00000000E+00  0.00000000E+00  0.00000000E+00
  0.00000000E+00  0.00000000E+00  0.00000000E+00
  0.00000000E+00  0.00000000E+00  0.00000000E+00
  0.00000000E+00  0.00000000E+00  0.00000000E+00
  0.00000000E+00  0.00000000E+00  0.00000000E+00
  0.00000000E+00  0.00000000E+00  0.00000000E+00
  0.00000000E+00  0.00000000E+00  0.00000000E+00
  0.00000000E+00  0.00000000E+00  0.00000000E+00
