#65 (C m m m)                           
   8.67959998844761     
     0.4975127481446652   -0.2085350783047253    0.0000000000000000
    -0.4975127481446652   -0.2085350783047253    0.0000000000000000
     0.0000000000000000    0.0000000000000000   -0.4098935485753037
   Fe   S 
     4     1
Direct
  0.3508607185340812  0.6491392814659187  0.0000000000000000
  0.6491392814659187  0.3508607185340812  0.0000000000000000
  0.8429030173999564  0.1570969826000435  0.5000000000000000
  0.1570969826000435  0.8429030173999564  0.5000000000000000
  0.0000000000000000 -0.0000000000000000  0.0000000000000000
 
  0.00000000E+00  0.00000000E+00  0.00000000E+00
  0.00000000E+00  0.00000000E+00  0.00000000E+00
  0.00000000E+00  0.00000000E+00  0.00000000E+00
  0.00000000E+00  0.00000000E+00  0.00000000E+00
  0.00000000E+00  0.00000000E+00  0.00000000E+00
