#79-I4                                  
  0.999999998762776     
     5.2455367108528019    0.0000000160975801   -0.0000000000000000
    -0.0000000160975801    5.2455367108528019   -0.0000000000000000
     0.0000000000000000   -0.0000000000000000    4.3030820924094000
   Fe   S 
     8     2
Direct
  0.6638476967118216  0.1664647332868050  0.0311561853955959
  0.3361523032881781  0.8335352667131951  0.0311561853955959
  0.8335352667131951  0.6638476967118216  0.0311561853955959
  0.1664647332868050  0.3361523032881781  0.0311561853955959
  0.1638476967118219  0.6664647332868049  0.5311561853955958
  0.8361523032881784  0.3335352667131949  0.5311561853955958
  0.3335352667131949  0.1638476967118219  0.5311561853955958
  0.6664647332868049  0.8361523032881784  0.5311561853955958
 -0.0000000000000000  0.0000000000000000  0.7863352584176121
  0.5000000000000000  0.5000000000000000  0.2863352584176120
 
  0.00000000E+00  0.00000000E+00  0.00000000E+00
  0.00000000E+00  0.00000000E+00  0.00000000E+00
  0.00000000E+00  0.00000000E+00  0.00000000E+00
  0.00000000E+00  0.00000000E+00  0.00000000E+00
  0.00000000E+00  0.00000000E+00  0.00000000E+00
  0.00000000E+00  0.00000000E+00  0.00000000E+00
  0.00000000E+00  0.00000000E+00  0.00000000E+00
  0.00000000E+00  0.00000000E+00  0.00000000E+00
  0.00000000E+00  0.00000000E+00  0.00000000E+00
  0.00000000E+00  0.00000000E+00  0.00000000E+00
