#183-P6mm                               
   1.00000000187044     
     4.6485374582530685    0.0000000000000000    0.0000000000000000
    -2.3242687291265343    4.0257515292907007    0.0000000000000000
     0.0000000000000000    0.0000000000000000    4.6620231654617088
   Fe   Nb
     6     1
Direct
  0.5000000000000000  0.0000000000000000  0.1317032202243453
  0.5000000000000000  0.5000000000000000  0.1317032202243453
  0.0000000000000000  0.5000000000000000  0.1317032202243453
  0.3333299999999966  0.6666700000000034  0.6403782975679775
  0.6666600000000003  0.3333299999999966  0.6403782975679775
  0.0000000000000000  0.0000000000000000  0.9019156822237377
  0.0000000000000000  0.0000000000000000  0.4214880619672741
 
  0.00000000E+00  0.00000000E+00  0.00000000E+00
  0.00000000E+00  0.00000000E+00  0.00000000E+00
  0.00000000E+00  0.00000000E+00  0.00000000E+00
  0.00000000E+00  0.00000000E+00  0.00000000E+00
  0.00000000E+00  0.00000000E+00  0.00000000E+00
  0.00000000E+00  0.00000000E+00  0.00000000E+00
  0.00000000E+00  0.00000000E+00  0.00000000E+00
