#12-C12/m1                              
   1.00000000006899     
     9.1065807391938733    0.0000000000000000   -0.0178618501408379
     0.0000000000000000    2.9595028162699668    0.0000000000000000
    -0.8763736198966305    0.0000000000000000    6.3826627040911825
   Fe   Nb
    12     2
Direct
  0.0713583066639814  0.0000000000000000  0.7005893361623734
  0.9286416933360186  0.0000000000000000  0.2994106638376266
  0.5713583066639814  0.5000000000000000  0.7005893361623734
  0.4286416933360186  0.5000000000000000  0.2994106638376266
  0.2214581317421320  0.0000000000000000  0.1497778572174084
  0.7785418682578680  0.0000000000000000  0.8502221427825916
  0.7214581317421320  0.5000000000000000  0.1497778572174084
  0.2785418682578680  0.5000000000000000  0.8502221427825916
  0.3544577781146998  0.0000000000000000  0.5715781855084998
  0.6455422218853002  0.0000000000000000  0.4284218144915002
  0.8544577781146998  0.5000000000000000  0.5715781855084998
  0.1455422218853002  0.5000000000000000  0.4284218144915002
  0.0000000000000000  0.5000000000000000  0.0000000000000000
  0.5000000000000000  0.0000000000000000  0.0000000000000000
 
  0.00000000E+00  0.00000000E+00  0.00000000E+00
  0.00000000E+00  0.00000000E+00  0.00000000E+00
  0.00000000E+00  0.00000000E+00  0.00000000E+00
  0.00000000E+00  0.00000000E+00  0.00000000E+00
  0.00000000E+00  0.00000000E+00  0.00000000E+00
  0.00000000E+00  0.00000000E+00  0.00000000E+00
  0.00000000E+00  0.00000000E+00  0.00000000E+00
  0.00000000E+00  0.00000000E+00  0.00000000E+00
  0.00000000E+00  0.00000000E+00  0.00000000E+00
  0.00000000E+00  0.00000000E+00  0.00000000E+00
  0.00000000E+00  0.00000000E+00  0.00000000E+00
  0.00000000E+00  0.00000000E+00  0.00000000E+00
  0.00000000E+00  0.00000000E+00  0.00000000E+00
  0.00000000E+00  0.00000000E+00  0.00000000E+00
