#12-C12/m1                              
   1.00000000027824     
    16.7348273929152995    0.0000000000000000   -0.0124575841765423
     0.0000000000000000    4.0549434861629905    0.0000000000000000
    -0.2829685907299187    0.0000000000000000    2.5351248187226703
   Fe   Nb
    12     2
Direct
  0.6484152895139701  0.0000000000000000  0.4245517528488563
  0.3515847104860299  0.0000000000000000  0.5754482471511437
  0.1484152895139701  0.5000000000000000  0.4245517528488563
  0.8515847104860299  0.5000000000000000  0.5754482471511437
  0.9215960673876893  0.0000000000000000  0.3049273345226382
  0.0784039326123107  0.0000000000000000  0.6950726654773618
  0.4215960673876893  0.5000000000000000  0.3049273345226382
  0.5784039326123107  0.5000000000000000  0.6950726654773618
  0.2149979869727119  0.0000000000000000  0.1336313058230019
  0.7850020130272881  0.0000000000000000  0.8663686941769981
  0.7149979869727119  0.5000000000000000  0.1336313058230019
  0.2850020130272881  0.5000000000000000  0.8663686941769981
  0.0000000000000000  0.5000000000000000  0.0000000000000000
  0.5000000000000000  0.0000000000000000  0.0000000000000000
 
  0.00000000E+00  0.00000000E+00  0.00000000E+00
  0.00000000E+00  0.00000000E+00  0.00000000E+00
  0.00000000E+00  0.00000000E+00  0.00000000E+00
  0.00000000E+00  0.00000000E+00  0.00000000E+00
  0.00000000E+00  0.00000000E+00  0.00000000E+00
  0.00000000E+00  0.00000000E+00  0.00000000E+00
  0.00000000E+00  0.00000000E+00  0.00000000E+00
  0.00000000E+00  0.00000000E+00  0.00000000E+00
  0.00000000E+00  0.00000000E+00  0.00000000E+00
  0.00000000E+00  0.00000000E+00  0.00000000E+00
  0.00000000E+00  0.00000000E+00  0.00000000E+00
  0.00000000E+00  0.00000000E+00  0.00000000E+00
  0.00000000E+00  0.00000000E+00  0.00000000E+00
  0.00000000E+00  0.00000000E+00  0.00000000E+00
