#187-P-6m2                              
   1.00000000165775     
     4.6312420937790151    0.0000000000000000    0.0000000000000000
    -2.3156210468895075    4.0107733042884615    0.0000000000000000
     0.0000000000000000    0.0000000000000000    4.6955639915031160
   Fe   Nb
     6     1
Direct
  0.0000000000000000  0.0000000000000000  0.7550520889624650
  0.0000000000000000  0.0000000000000000  0.2449479110375350
  0.6666700000000034  0.3333299999999966  0.0000000000000000
  0.5015917644519945  0.4984082355480055  0.5000000000000000
  0.5015917644519945  0.0031835289039819  0.5000000000000000
  0.9968164710960181  0.4984082355480055  0.5000000000000000
  0.3333299999999966  0.6666700000000034  0.0000000000000000
 
  0.00000000E+00  0.00000000E+00  0.00000000E+00
  0.00000000E+00  0.00000000E+00  0.00000000E+00
  0.00000000E+00  0.00000000E+00  0.00000000E+00
  0.00000000E+00  0.00000000E+00  0.00000000E+00
  0.00000000E+00  0.00000000E+00  0.00000000E+00
  0.00000000E+00  0.00000000E+00  0.00000000E+00
  0.00000000E+00  0.00000000E+00  0.00000000E+00
