#12-C12/m1                              
  0.999999999870819     
     8.7484923251363291    0.0000000000000000    0.0084472403552718
     0.0000000000000000    4.0812117025450334    0.0000000000000000
    -0.4749140026883866    0.0000000000000000    4.7996771817643387
   Fe   Nb
    12     2
Direct
  0.4243766576845758  0.0000000000000000  0.2016786694993158
  0.5756233423154242  0.0000000000000000  0.7983213305006842
  0.9243766576845758  0.5000000000000000  0.2016786694993158
  0.0756233423154242  0.5000000000000000  0.7983213305006842
  0.2895574349735242  0.0000000000000000  0.6460740111428649
  0.7104425650264758  0.0000000000000000  0.3539259888571351
  0.7895574349735242  0.5000000000000000  0.6460740111428649
  0.2104425650264758  0.5000000000000000  0.3539259888571351
  0.1468872239534917  0.0000000000000000  0.0672719146008305
  0.8531127760465083  0.0000000000000000  0.9327280853991695
  0.6468872239534917  0.5000000000000000  0.0672719146008305
  0.3531127760465083  0.5000000000000000  0.9327280853991695
  0.0000000000000000  0.0000000000000000  0.5000000000000000
  0.5000000000000000  0.5000000000000000  0.5000000000000000
 
  0.00000000E+00  0.00000000E+00  0.00000000E+00
  0.00000000E+00  0.00000000E+00  0.00000000E+00
  0.00000000E+00  0.00000000E+00  0.00000000E+00
  0.00000000E+00  0.00000000E+00  0.00000000E+00
  0.00000000E+00  0.00000000E+00  0.00000000E+00
  0.00000000E+00  0.00000000E+00  0.00000000E+00
  0.00000000E+00  0.00000000E+00  0.00000000E+00
  0.00000000E+00  0.00000000E+00  0.00000000E+00
  0.00000000E+00  0.00000000E+00  0.00000000E+00
  0.00000000E+00  0.00000000E+00  0.00000000E+00
  0.00000000E+00  0.00000000E+00  0.00000000E+00
  0.00000000E+00  0.00000000E+00  0.00000000E+00
  0.00000000E+00  0.00000000E+00  0.00000000E+00
  0.00000000E+00  0.00000000E+00  0.00000000E+00
