#166-R-32/m(hexagonalaxes)              
  0.999999999719156     
     4.0997004858481780    0.0000000000000000    0.0000000000000000
    -2.0498502429240890    3.5504447686519272    0.0000000000000000
     0.0000000000000000    0.0000000000000000   17.6148360457947533
   Fe   Nb
    18     3
Direct
  0.0000000000000000  0.0000000000000000  0.0689173554368949
  0.0000000000000000  0.0000000000000000  0.9310826445631051
  0.3333299999999966  0.6666700000000034  0.7355873554368983
  0.3333299999999966  0.6666700000000034  0.5977526445631014
  0.6666700000000034  0.3333299999999966  0.4022473554368986
  0.6666700000000034  0.3333299999999966  0.2644126445631017
  0.0000000000000000  0.0000000000000000  0.3547540160941267
  0.0000000000000000  0.0000000000000000  0.6452459839058733
  0.3333299999999966  0.6666700000000034  0.0214240160941230
  0.3333299999999966  0.6666700000000034  0.3119159839058767
  0.6666700000000034  0.3333299999999966  0.6880840160941233
  0.6666700000000034  0.3333299999999966  0.9785759839058770
  0.0000000000000000  0.0000000000000000  0.2172308613725207
  0.0000000000000000  0.0000000000000000  0.7827691386274793
  0.3333299999999966  0.6666700000000034  0.8839008613725170
  0.3333299999999966  0.6666700000000034  0.4494391386274827
  0.6666700000000034  0.3333299999999966  0.5505608613725173
  0.6666700000000034  0.3333299999999966  0.1160991386274830
  0.0000000000000000  0.0000000000000000  0.5000000000000000
  0.3333299999999966  0.6666700000000034  0.1666700000000034
  0.6666700000000034  0.3333299999999966  0.8333299999999966
 
  0.00000000E+00  0.00000000E+00  0.00000000E+00
  0.00000000E+00  0.00000000E+00  0.00000000E+00
  0.00000000E+00  0.00000000E+00  0.00000000E+00
  0.00000000E+00  0.00000000E+00  0.00000000E+00
  0.00000000E+00  0.00000000E+00  0.00000000E+00
  0.00000000E+00  0.00000000E+00  0.00000000E+00
  0.00000000E+00  0.00000000E+00  0.00000000E+00
  0.00000000E+00  0.00000000E+00  0.00000000E+00
  0.00000000E+00  0.00000000E+00  0.00000000E+00
  0.00000000E+00  0.00000000E+00  0.00000000E+00
  0.00000000E+00  0.00000000E+00  0.00000000E+00
  0.00000000E+00  0.00000000E+00  0.00000000E+00
  0.00000000E+00  0.00000000E+00  0.00000000E+00
  0.00000000E+00  0.00000000E+00  0.00000000E+00
  0.00000000E+00  0.00000000E+00  0.00000000E+00
  0.00000000E+00  0.00000000E+00  0.00000000E+00
  0.00000000E+00  0.00000000E+00  0.00000000E+00
  0.00000000E+00  0.00000000E+00  0.00000000E+00
  0.00000000E+00  0.00000000E+00  0.00000000E+00
  0.00000000E+00  0.00000000E+00  0.00000000E+00
  0.00000000E+00  0.00000000E+00  0.00000000E+00
