#148-R-3(hexagonalaxes)                 
   1.00000000062984     
    10.8048320701878566    0.0000000321851686    0.0000000000000000
    -5.4024160629671023    9.3572590403149043    0.0000000000000000
     0.0000000000000000    0.0000000000000000    2.5517332975420457
   Fe   Nb
    18     3
Direct
  0.6162182429941438  0.0886163776178392  0.1756662197136194
  0.9113836223821608  0.5276018653762975  0.1756662197136194
  0.4723981346237025  0.3837817570058562  0.1756662197136194
  0.3837817570058562  0.9113836223821608  0.8243337802863806
  0.0886163776178392  0.4723981346237025  0.8243337802863806
  0.5276018653762975  0.6162182429941438  0.8243337802863806
  0.9495482429941475  0.7552863776178427  0.8423362197136157
  0.2447136223821573  0.1942718653763009  0.8423362197136157
  0.8057281346236991  0.0504517570058525  0.8423362197136157
  0.7171117570058527  0.5780536223821571  0.4910037802863840
  0.4219463776178429  0.1390681346236988  0.4910037802863840
  0.8609318653763012  0.2828882429941473  0.4910037802863840
  0.2828882429941473  0.4219463776178429  0.5089962197136160
  0.5780536223821571  0.8609318653763012  0.5089962197136160
  0.1390681346236988  0.7171117570058527  0.5089962197136160
  0.0504517570058525  0.2447136223821573  0.1576637802863843
  0.7552863776178427  0.8057281346236991  0.1576637802863843
  0.1942718653763009  0.9495482429941475  0.1576637802863843
  0.0000000000000000  0.0000000000000000  0.5000000000000000
  0.3333299999999966  0.6666700000000034  0.1666700000000034
  0.6666700000000034  0.3333299999999966  0.8333299999999966
 
  0.00000000E+00  0.00000000E+00  0.00000000E+00
  0.00000000E+00  0.00000000E+00  0.00000000E+00
  0.00000000E+00  0.00000000E+00  0.00000000E+00
  0.00000000E+00  0.00000000E+00  0.00000000E+00
  0.00000000E+00  0.00000000E+00  0.00000000E+00
  0.00000000E+00  0.00000000E+00  0.00000000E+00
  0.00000000E+00  0.00000000E+00  0.00000000E+00
  0.00000000E+00  0.00000000E+00  0.00000000E+00
  0.00000000E+00  0.00000000E+00  0.00000000E+00
  0.00000000E+00  0.00000000E+00  0.00000000E+00
  0.00000000E+00  0.00000000E+00  0.00000000E+00
  0.00000000E+00  0.00000000E+00  0.00000000E+00
  0.00000000E+00  0.00000000E+00  0.00000000E+00
  0.00000000E+00  0.00000000E+00  0.00000000E+00
  0.00000000E+00  0.00000000E+00  0.00000000E+00
  0.00000000E+00  0.00000000E+00  0.00000000E+00
  0.00000000E+00  0.00000000E+00  0.00000000E+00
  0.00000000E+00  0.00000000E+00  0.00000000E+00
  0.00000000E+00  0.00000000E+00  0.00000000E+00
  0.00000000E+00  0.00000000E+00  0.00000000E+00
  0.00000000E+00  0.00000000E+00  0.00000000E+00
