#221-P4/m-32/m                          
   1.00000000138876     
     2.7554358790620359    0.0000000000000000    0.0000000000000000
     0.0000000000000000    2.7554358790620359    0.0000000000000000
     0.0000000000000000    0.0000000000000000    2.7554358790620359
   Fe   Si
     1     1
Direct
  0.5000000000000000  0.5000000000000000  0.5000000000000000
  0.0000000000000000  0.0000000000000000  0.0000000000000000
 
  0.00000000E+00  0.00000000E+00  0.00000000E+00
  0.00000000E+00  0.00000000E+00  0.00000000E+00
