#198-P213                               
  0.999999998900827     
     4.4408194151893730    0.0000000000000000    0.0000000000000000
     0.0000000000000000    4.4408194151893730    0.0000000000000000
     0.0000000000000000    0.0000000000000000    4.4408194151893730
   Fe   Si
     4     4
Direct
  0.8634769028495484  0.8634769028495484  0.8634769028495484
  0.3634769028495484  0.6365230971504516  0.1365230971504516
  0.1365230971504516  0.3634769028495484  0.6365230971504516
  0.6365230971504516  0.1365230971504516  0.3634769028495484
  0.1589942959449573  0.1589942959449573  0.1589942959449573
  0.6589942959449573  0.3410057040550427  0.8410057040550427
  0.8410057040550427  0.6589942959449573  0.3410057040550427
  0.3410057040550427  0.8410057040550427  0.6589942959449573
 
  0.00000000E+00  0.00000000E+00  0.00000000E+00
  0.00000000E+00  0.00000000E+00  0.00000000E+00
  0.00000000E+00  0.00000000E+00  0.00000000E+00
  0.00000000E+00  0.00000000E+00  0.00000000E+00
  0.00000000E+00  0.00000000E+00  0.00000000E+00
  0.00000000E+00  0.00000000E+00  0.00000000E+00
  0.00000000E+00  0.00000000E+00  0.00000000E+00
  0.00000000E+00  0.00000000E+00  0.00000000E+00
