#11-P121/m1                             
   1.00000000145866     
     4.8318495530516108    0.0000000000000000    0.0019915930262400
     0.0000000000000000    3.7205168241217002    0.0000000000000000
    -1.6319687517759545    0.0000000000000000    4.8371382502855749
   Fe   Si
     4     4
Direct
  0.6238686328422887  0.2500000000000000  0.8689591007584738
  0.3761313671577184  0.7500000000000000  0.1310408992415191
  0.7930665737612657  0.2500000000000000  0.3997249754813410
  0.2069334262387343  0.7500000000000000  0.6002750245186590
  0.1202351590241406  0.2500000000000000  0.8580955838812940
  0.8797648409758594  0.7500000000000000  0.1419044161187060
  0.3031186685210798  0.2500000000000000  0.3845982280073983
  0.6968813314789202  0.7500000000000000  0.6154017719926017
 
  0.00000000E+00  0.00000000E+00  0.00000000E+00
  0.00000000E+00  0.00000000E+00  0.00000000E+00
  0.00000000E+00  0.00000000E+00  0.00000000E+00
  0.00000000E+00  0.00000000E+00  0.00000000E+00
  0.00000000E+00  0.00000000E+00  0.00000000E+00
  0.00000000E+00  0.00000000E+00  0.00000000E+00
  0.00000000E+00  0.00000000E+00  0.00000000E+00
  0.00000000E+00  0.00000000E+00  0.00000000E+00
