#139-I4/m2/m2/m                         
   1.00000000012524     
     2.7199099994495168    0.0000000000000000    0.0000000000000000
     0.0000000000000000    2.7199099994495168    0.0000000000000000
     0.0000000000000000    0.0000000000000000   24.5303839173591385
   Fe   Si
     8     8
Direct
  0.0000000000000000  0.0000000000000000  0.2824014108906994
  0.0000000000000000  0.0000000000000000  0.7175985891093006
  0.5000000000000000  0.5000000000000000  0.7824014108906994
  0.5000000000000000  0.5000000000000000  0.2175985891093006
  0.0000000000000000  0.0000000000000000  0.3971024051832330
  0.0000000000000000  0.0000000000000000  0.6028975948167670
  0.5000000000000000  0.5000000000000000  0.8971024051832330
  0.5000000000000000  0.5000000000000000  0.1028975948167670
  0.0000000000000000  0.0000000000000000  0.0479537464904993
  0.0000000000000000  0.0000000000000000  0.9520462535095007
  0.5000000000000000  0.5000000000000000  0.5479537464904993
  0.5000000000000000  0.5000000000000000  0.4520462535095007
  0.0000000000000000  0.0000000000000000  0.8377879840992151
  0.0000000000000000  0.0000000000000000  0.1622120159007849
  0.5000000000000000  0.5000000000000000  0.3377879840992151
  0.5000000000000000  0.5000000000000000  0.6622120159007849
 
  0.00000000E+00  0.00000000E+00  0.00000000E+00
  0.00000000E+00  0.00000000E+00  0.00000000E+00
  0.00000000E+00  0.00000000E+00  0.00000000E+00
  0.00000000E+00  0.00000000E+00  0.00000000E+00
  0.00000000E+00  0.00000000E+00  0.00000000E+00
  0.00000000E+00  0.00000000E+00  0.00000000E+00
  0.00000000E+00  0.00000000E+00  0.00000000E+00
  0.00000000E+00  0.00000000E+00  0.00000000E+00
  0.00000000E+00  0.00000000E+00  0.00000000E+00
  0.00000000E+00  0.00000000E+00  0.00000000E+00
  0.00000000E+00  0.00000000E+00  0.00000000E+00
  0.00000000E+00  0.00000000E+00  0.00000000E+00
  0.00000000E+00  0.00000000E+00  0.00000000E+00
  0.00000000E+00  0.00000000E+00  0.00000000E+00
  0.00000000E+00  0.00000000E+00  0.00000000E+00
  0.00000000E+00  0.00000000E+00  0.00000000E+00
