#67-C2/m2/m2/a                          
   1.00000000003590     
     7.5520122091149595    0.0000000000000000    0.0000000000000000
     0.0000000000000000    4.7878528871430603    0.0000000000000000
     0.0000000000000000    0.0000000000000000    4.9210703913507814
   Fe   Si
     8     8
Direct
  0.0000000000000000  0.2500000000000000  0.8385062217909081
  0.0000000000000000  0.7500000000000000  0.1614937782090919
  0.5000000000000000  0.2500000000000000  0.1614937782090919
  0.5000000000000000  0.7500000000000000  0.8385062217909081
  0.2500000000000000  0.0000000000000000  0.5000000000000000
  0.7500000000000000  0.0000000000000000  0.5000000000000000
  0.7500000000000000  0.5000000000000000  0.5000000000000000
  0.2500000000000000  0.5000000000000000  0.5000000000000000
  0.2500000000000000  0.0000000000000000  0.0000000000000000
  0.7500000000000000  0.0000000000000000  0.0000000000000000
  0.7500000000000000  0.5000000000000000  0.0000000000000000
  0.2500000000000000  0.5000000000000000  0.0000000000000000
  0.0000000000000000  0.2500000000000000  0.3357987577634560
  0.0000000000000000  0.7500000000000000  0.6642012422365440
  0.5000000000000000  0.2500000000000000  0.6642012422365440
  0.5000000000000000  0.7500000000000000  0.3357987577634560
 
  0.00000000E+00  0.00000000E+00  0.00000000E+00
  0.00000000E+00  0.00000000E+00  0.00000000E+00
  0.00000000E+00  0.00000000E+00  0.00000000E+00
  0.00000000E+00  0.00000000E+00  0.00000000E+00
  0.00000000E+00  0.00000000E+00  0.00000000E+00
  0.00000000E+00  0.00000000E+00  0.00000000E+00
  0.00000000E+00  0.00000000E+00  0.00000000E+00
  0.00000000E+00  0.00000000E+00  0.00000000E+00
  0.00000000E+00  0.00000000E+00  0.00000000E+00
  0.00000000E+00  0.00000000E+00  0.00000000E+00
  0.00000000E+00  0.00000000E+00  0.00000000E+00
  0.00000000E+00  0.00000000E+00  0.00000000E+00
  0.00000000E+00  0.00000000E+00  0.00000000E+00
  0.00000000E+00  0.00000000E+00  0.00000000E+00
  0.00000000E+00  0.00000000E+00  0.00000000E+00
  0.00000000E+00  0.00000000E+00  0.00000000E+00
