#2-P-1                                  
   1.00000000070719     
     4.3913189617713204   -0.0036452261129799    0.0022103585037692
     0.7944941803753471    4.4254521408272236    0.0004065119582589
     0.0601416270961705    1.7888104641239433    4.5431009990317373
   Fe   Si
     4     4
Direct
  0.1011499228772763  0.2271307694504756  0.7602616691378969
  0.8988500771227237  0.7728692305495244  0.2397383308621031
  0.4109813300933993  0.7281675758399544  0.5796405703553447
  0.5890186699066007  0.2718324241600456  0.4203594296446553
  0.9030919336570093  0.7659790224420107  0.7407388661555672
  0.0969080663429907  0.2340209775579893  0.2592611338444328
  0.5970144587819277  0.2509871893541629  0.9419086351692130
  0.4029855412180723  0.7490128106458371  0.0580913648307870
 
  0.00000000E+00  0.00000000E+00  0.00000000E+00
  0.00000000E+00  0.00000000E+00  0.00000000E+00
  0.00000000E+00  0.00000000E+00  0.00000000E+00
  0.00000000E+00  0.00000000E+00  0.00000000E+00
  0.00000000E+00  0.00000000E+00  0.00000000E+00
  0.00000000E+00  0.00000000E+00  0.00000000E+00
  0.00000000E+00  0.00000000E+00  0.00000000E+00
  0.00000000E+00  0.00000000E+00  0.00000000E+00
