#62-P21/n21/m21/a                       
   1.00000000082207     
     3.9991016994331181    0.0000000000000000    0.0000000000000000
     0.0000000000000000    2.6991628384223016    0.0000000000000000
     0.0000000000000000    0.0000000000000000    8.0159112054517667
   Fe   Si
     4     4
Direct
  0.6192101631335944  0.2500000000000000  0.3696538879098057
  0.1192101631335944  0.2500000000000000  0.1303461120901943
  0.3807898368664056  0.7500000000000000  0.6303461120901943
  0.8807898368664056  0.7500000000000000  0.8696538879098057
  0.3900701231366810  0.2500000000000000  0.8731335172153436
  0.8900701231366810  0.2500000000000000  0.6268664827846564
  0.6099298768633190  0.7500000000000000  0.1268664827846564
  0.1099298768633190  0.7500000000000000  0.3731335172153436
 
  0.00000000E+00  0.00000000E+00  0.00000000E+00
  0.00000000E+00  0.00000000E+00  0.00000000E+00
  0.00000000E+00  0.00000000E+00  0.00000000E+00
  0.00000000E+00  0.00000000E+00  0.00000000E+00
  0.00000000E+00  0.00000000E+00  0.00000000E+00
  0.00000000E+00  0.00000000E+00  0.00000000E+00
  0.00000000E+00  0.00000000E+00  0.00000000E+00
  0.00000000E+00  0.00000000E+00  0.00000000E+00
