#71-I2/m2/m2/m                          
   1.00000000117463     
     2.7512419075241765    0.0000000000000000    0.0000000000000000
     0.0000000000000000    4.8234847582455300    0.0000000000000000
     0.0000000000000000    0.0000000000000000    6.9084237686721472
   Fe   Si
     4     4
Direct
  0.5000000000000000  0.0000000000000000  0.2103278806853695
  0.5000000000000000  0.0000000000000000  0.7896721193146305
  0.0000000000000000  0.5000000000000000  0.7103278806853695
  0.0000000000000000  0.5000000000000000  0.2896721193146305
  0.0000000000000000  0.2558922190716970  0.0000000000000000
  0.0000000000000000  0.7441077809283030  0.0000000000000000
  0.5000000000000000  0.7558922190716970  0.5000000000000000
  0.5000000000000000  0.2441077809283030  0.5000000000000000
 
  0.00000000E+00  0.00000000E+00  0.00000000E+00
  0.00000000E+00  0.00000000E+00  0.00000000E+00
  0.00000000E+00  0.00000000E+00  0.00000000E+00
  0.00000000E+00  0.00000000E+00  0.00000000E+00
  0.00000000E+00  0.00000000E+00  0.00000000E+00
  0.00000000E+00  0.00000000E+00  0.00000000E+00
  0.00000000E+00  0.00000000E+00  0.00000000E+00
  0.00000000E+00  0.00000000E+00  0.00000000E+00
