FeNi 
   1.00662271725853     
     2.5014248485684512   -0.0000000000000000    0.0000000000000000
     0.0000000000000000    2.5014248485684512    0.0000000000000000
     0.0000000000000000   -0.0000000000000000    3.5589062754955161
   Fe   Ni
     1     1
Direct
  0.0000000000000000  0.0000000000000000  0.0000000000000000
  0.5000000000000000  0.5000000000000000  0.5000000000000000
 
  0.00000000E+00  0.00000000E+00  0.00000000E+00
  0.00000000E+00  0.00000000E+00  0.00000000E+00
