#156 (P 3 m 1)                          
   4.84101000110244     
     0.9685725607883011   -0.0000183791768548    0.0000002115306611
    -0.4843021966070726    0.8387993191798454   -0.0000002802515072
     0.0000002139635858   -0.0000003053481974    2.3978713303085857
   Co   Fe   Ta
     3    12     3
Direct
  0.3332683038373530  0.6667326727088437  0.6675297441598853
  0.6665480102038833  0.3334529678500209  0.3341945157600798
  0.9999191698604992  0.0000817966158074  0.0008622908895503
  0.8323918986736087  0.1676080010373840  0.1677132698040277
  0.8323972986773961  0.6651004088607343  0.1677238986557399
  0.3348994641487165  0.1676026154472831  0.1677243996101967
  0.1657895191902299  0.8342103383823670  0.8344008466912323
  0.1657927148035465  0.3317032998227811  0.8343853276433567
  0.6682965962492667  0.8342072655021560  0.8343858271065975
  0.4990671602710594  0.5009327338255445  0.5010520324475110
  0.4990580492816268  0.9984232380505716  0.5010554293105852
  0.0015766454932579  0.5009418837263295  0.5010559298380058
  0.3332203718260600  0.6667791789482876  0.2903435192515352
  0.6666129101329951  0.3333866119010003  0.9570027727985215
  0.9999473693840587  0.0000521680820295  0.6236714516235655
  0.3332276765866150  0.6667720972995583  0.0415700952119330
  0.6666000470751394  0.3333997368419575  0.7082271695271651
  0.9998467943046677  0.0001529850973350  0.3749014796705142
 
  0.00000000E+00  0.00000000E+00  0.00000000E+00
  0.00000000E+00  0.00000000E+00  0.00000000E+00
  0.00000000E+00  0.00000000E+00  0.00000000E+00
  0.00000000E+00  0.00000000E+00  0.00000000E+00
  0.00000000E+00  0.00000000E+00  0.00000000E+00
  0.00000000E+00  0.00000000E+00  0.00000000E+00
  0.00000000E+00  0.00000000E+00  0.00000000E+00
  0.00000000E+00  0.00000000E+00  0.00000000E+00
  0.00000000E+00  0.00000000E+00  0.00000000E+00
  0.00000000E+00  0.00000000E+00  0.00000000E+00
  0.00000000E+00  0.00000000E+00  0.00000000E+00
  0.00000000E+00  0.00000000E+00  0.00000000E+00
  0.00000000E+00  0.00000000E+00  0.00000000E+00
  0.00000000E+00  0.00000000E+00  0.00000000E+00
  0.00000000E+00  0.00000000E+00  0.00000000E+00
  0.00000000E+00  0.00000000E+00  0.00000000E+00
  0.00000000E+00  0.00000000E+00  0.00000000E+00
  0.00000000E+00  0.00000000E+00  0.00000000E+00
