#15 (C 2/c) [unique axis c]             
   5.07625999564383     
    -0.0057917705036671    0.0000000000000000    1.4014611075111105
     0.4997070440443024    0.8151284249845099    0.0000540654862057
    -0.4997070440443024    0.8151284249845099   -0.0000540654862057
   Co   Fe   Ta
     2     8     2
Direct
  0.2500000000000000  0.1217233756656847  0.1217233756656847
  0.7500000000000000  0.8782766243343152  0.8782766243343152
  0.5791125803356127  0.9521368461545530  0.2897439319258764
  0.9208874196643873  0.2897439319258764  0.9521368461545530
  0.4208874196643873  0.0478631538454471  0.7102560680741234
  0.0791125803356127  0.7102560680741234  0.0478631538454471
  0.0884291171954805  0.1982095517472589  0.5422450592829657
  0.4115708828045195  0.5422450592829657  0.1982095517472589
  0.9115708828045194  0.8017904482527410  0.4577549407170344
  0.5884291171954806  0.4577549407170344  0.8017904482527410
  0.2500000000000000  0.6245369074040907  0.6245369074040907
  0.7500000000000000  0.3754630925959093  0.3754630925959093
 
  0.00000000E+00  0.00000000E+00  0.00000000E+00
  0.00000000E+00  0.00000000E+00  0.00000000E+00
  0.00000000E+00  0.00000000E+00  0.00000000E+00
  0.00000000E+00  0.00000000E+00  0.00000000E+00
  0.00000000E+00  0.00000000E+00  0.00000000E+00
  0.00000000E+00  0.00000000E+00  0.00000000E+00
  0.00000000E+00  0.00000000E+00  0.00000000E+00
  0.00000000E+00  0.00000000E+00  0.00000000E+00
  0.00000000E+00  0.00000000E+00  0.00000000E+00
  0.00000000E+00  0.00000000E+00  0.00000000E+00
  0.00000000E+00  0.00000000E+00  0.00000000E+00
  0.00000000E+00  0.00000000E+00  0.00000000E+00
