#6 (P m) [unique axis c]                
   5.04365000070787     
     0.1317195339159285    0.0000000000000000   -1.4449366073114476
    -0.9972409101285604    0.0000000000000000    0.0003027103655879
     0.0000000000000000    0.7954530413628720    0.0000000000000000
   Co   Fe   Ta
     2     8     2
Direct
  0.8054518990338745  0.2058237584991113  0.5000000000000000
  0.9997921343355787  0.0001546857307550  0.0000000000000000
  0.6566540051258156  0.3571108189721413 -0.0000000000000000
  0.4954858366123870  0.5071368295657999  0.5000000000000000
  0.6532217860584499  0.8631665769541615 -0.0000000000000000
  0.9927444092489779  0.5007381104703023  0.0000000000000000
  0.1805445911791987  0.8054795923028479  0.5000000000000000
  0.3327926153979788  0.6549464831138366  0.0000000000000000
  0.3386571064013735  0.1515369405351610 -0.0000000000000000
  0.4929578089996348  0.0043424983010857  0.5000000000000000
  0.1530654799120192  0.3013970569602868  0.5000000000000000
  0.8364823276947226  0.7107166485945194  0.5000000000000000
 
  0.00000000E+00  0.00000000E+00  0.00000000E+00
  0.00000000E+00  0.00000000E+00  0.00000000E+00
  0.00000000E+00  0.00000000E+00  0.00000000E+00
  0.00000000E+00  0.00000000E+00  0.00000000E+00
  0.00000000E+00  0.00000000E+00  0.00000000E+00
  0.00000000E+00  0.00000000E+00  0.00000000E+00
  0.00000000E+00  0.00000000E+00  0.00000000E+00
  0.00000000E+00  0.00000000E+00  0.00000000E+00
  0.00000000E+00  0.00000000E+00  0.00000000E+00
  0.00000000E+00  0.00000000E+00  0.00000000E+00
  0.00000000E+00  0.00000000E+00  0.00000000E+00
  0.00000000E+00  0.00000000E+00  0.00000000E+00
