#12 (C 2/m) [unique axis c] cell choice 
   8.76047999317869     
     0.3288992261047943    0.0000000000000000   -0.4760835153136497
    -0.4993084726023015    0.2333516700562604   -0.0005887347679877
     0.4993084726023015    0.2333516700562604    0.0005887347679877
   Co   Fe   Ta
     1     4     1
Direct
 -0.0000000000000000  0.0000000000000000  0.0000000000000000
  0.3304938883171810  0.6615544042878091  0.3384455957121909
  0.6695061116828189  0.3384455957121909  0.6615544042878091
  0.8448160741746085  0.6721932816269446  0.3278067183730554
  0.1551839258253914  0.3278067183730554  0.6721932816269446
  0.5000000000000000  0.0000000000000000  0.0000000000000000
 
  0.00000000E+00  0.00000000E+00  0.00000000E+00
  0.00000000E+00  0.00000000E+00  0.00000000E+00
  0.00000000E+00  0.00000000E+00  0.00000000E+00
  0.00000000E+00  0.00000000E+00  0.00000000E+00
  0.00000000E+00  0.00000000E+00  0.00000000E+00
  0.00000000E+00  0.00000000E+00  0.00000000E+00
