#44-Imm2                                
  0.999999999882729     
     4.0654684428278767    0.0000000000000000    0.0000000000000000
     0.0000000000000000    4.0536067411277017    0.0000000000000000
     0.0000000000000000    0.0000000000000000   17.8696213044620826
   Co   Fe   Ta
     4    16     4
Direct
  0.0000000000000000  0.5000000000000000  0.5367259082094126
  0.5000000000000000 -0.0000000000000000  0.0367259082094126
 -0.0000000000000000  0.0000000000000000  0.1184821124492088
  0.5000000000000000  0.5000000000000000  0.6184821124492088
 -0.0000000000000000  0.0000000000000000  0.7888625444496374
  0.5000000000000000  0.5000000000000000  0.2888625444496374
  0.0000000000000000 -0.0000000000000000  0.4617566617476201
  0.5000000000000000  0.5000000000000000  0.9617566617476130
 -0.0000000000000000  0.5000000000000000  0.3754025913794484
  0.5000000000000000 -0.0000000000000000  0.8754025913794484
 -0.0000000000000000 -0.0000000000000000  0.9628428505795877
  0.5000000000000000  0.5000000000000000  0.4628428505795879
  0.0000000000000000  0.5000000000000000  0.2034945808580698
  0.5000000000000000  0.0000000000000000  0.7034945808580698
  0.0000000000000000  0.5000000000000000  0.0405095547996990
  0.5000000000000000 -0.0000000000000000  0.5405095547996990
 -0.0000000000000000 -0.0000000000000000  0.6171085962978577
  0.5000000000000000  0.5000000000000000  0.1171085962978577
 -0.0000000000000000  0.0000000000000000  0.2890309995464480
  0.5000000000000000  0.5000000000000000  0.7890309995464480
  0.0000000000000000  0.5000000000000000  0.8758377920189557
  0.5000000000000000 -0.0000000000000000  0.3758377920189557
 -0.0000000000000000  0.5000000000000000  0.7019858076640472
  0.5000000000000000 -0.0000000000000000  0.2019858076640472
 
  0.00000000E+00  0.00000000E+00  0.00000000E+00
  0.00000000E+00  0.00000000E+00  0.00000000E+00
  0.00000000E+00  0.00000000E+00  0.00000000E+00
  0.00000000E+00  0.00000000E+00  0.00000000E+00
  0.00000000E+00  0.00000000E+00  0.00000000E+00
  0.00000000E+00  0.00000000E+00  0.00000000E+00
  0.00000000E+00  0.00000000E+00  0.00000000E+00
  0.00000000E+00  0.00000000E+00  0.00000000E+00
  0.00000000E+00  0.00000000E+00  0.00000000E+00
  0.00000000E+00  0.00000000E+00  0.00000000E+00
  0.00000000E+00  0.00000000E+00  0.00000000E+00
  0.00000000E+00  0.00000000E+00  0.00000000E+00
  0.00000000E+00  0.00000000E+00  0.00000000E+00
  0.00000000E+00  0.00000000E+00  0.00000000E+00
  0.00000000E+00  0.00000000E+00  0.00000000E+00
  0.00000000E+00  0.00000000E+00  0.00000000E+00
  0.00000000E+00  0.00000000E+00  0.00000000E+00
  0.00000000E+00  0.00000000E+00  0.00000000E+00
  0.00000000E+00  0.00000000E+00  0.00000000E+00
  0.00000000E+00  0.00000000E+00  0.00000000E+00
  0.00000000E+00  0.00000000E+00  0.00000000E+00
  0.00000000E+00  0.00000000E+00  0.00000000E+00
  0.00000000E+00  0.00000000E+00  0.00000000E+00
  0.00000000E+00  0.00000000E+00  0.00000000E+00
