#8 (C m) [unique axis c] cell choice 1  
   8.10436000851532     
     0.0013025793320156    0.0000000000000000   -0.9408644999255189
    -0.5037234580228714    0.2877658335118837   -0.0000569835184868
     0.5037234580228714    0.2877658335118837    0.0000569835184868
   Co   Fe   Ta
     2     8     2
Direct
  0.8113796004174956  0.5065044993675707  0.4934955006324293
  0.0002850686443908  0.0006520603353855  0.9993479396646145
  0.9990382074785572  0.5096668858938177  0.9992720058013016
  0.9990382074785572  0.0007279941986984  0.4903331141061823
  0.5006761842820637  0.8329146517639712  0.6589282740329698
  0.5006761842820637  0.3410717259670302  0.1670853482360288
  0.5010604985471963  0.3413860880329639  0.6586139119670361
  0.3094678160201929  0.8364159403800722  0.1635840596199278
  0.7528493654012238  0.1714221122428300  0.8285778877571700
  0.2503149936935563  0.1727277466927511  0.8272722533072489
  0.6886092994414200  0.8396804992132818  0.1603195007867182
  0.1826345743132802  0.5040297959116149  0.4959702040883852
 
  0.00000000E+00  0.00000000E+00  0.00000000E+00
  0.00000000E+00  0.00000000E+00  0.00000000E+00
  0.00000000E+00  0.00000000E+00  0.00000000E+00
  0.00000000E+00  0.00000000E+00  0.00000000E+00
  0.00000000E+00  0.00000000E+00  0.00000000E+00
  0.00000000E+00  0.00000000E+00  0.00000000E+00
  0.00000000E+00  0.00000000E+00  0.00000000E+00
  0.00000000E+00  0.00000000E+00  0.00000000E+00
  0.00000000E+00  0.00000000E+00  0.00000000E+00
  0.00000000E+00  0.00000000E+00  0.00000000E+00
  0.00000000E+00  0.00000000E+00  0.00000000E+00
  0.00000000E+00  0.00000000E+00  0.00000000E+00
