#6 (P m) [unique axis c]                
   5.05788000010431     
     0.0629258264053869    0.0000000000000000   -1.4325490218962624
    -0.9980034225576991    0.0000000000000000    0.0031376494005572
     0.0000000000000000    0.7997100418377840    0.0000000000000000
   Co   Fe   Ta
     2     8     2
Direct
  0.1688191831356092  0.8328585595804681  0.5000000000000000
  0.0002812006719452  0.9997131264526053 -0.0000000000000000
  0.8261637953672047  0.1770698344910775  0.5000000000000000
  0.8299691905583785  0.6771015789224558  0.5000000000000000
  0.1681057842006978  0.3201120245746351  0.5000000000000000
  0.4911572244323716  0.5110070459254361  0.5000000000000000
  0.4851148161209263  0.0207858055101590  0.5000000000000000
  0.3279950452022151  0.1753773884950326  0.0000000000000000
  0.6546728061959752  0.3531100483395163  0.0000000000000000
  0.3264111881463631  0.6738385481506802 -0.0000000000000000
  0.6572710843960962  0.8540702998284779 -0.0000000000000000
  0.9981386815722535  0.4976457397294394 -0.0000000000000000
 
  0.00000000E+00  0.00000000E+00  0.00000000E+00
  0.00000000E+00  0.00000000E+00  0.00000000E+00
  0.00000000E+00  0.00000000E+00  0.00000000E+00
  0.00000000E+00  0.00000000E+00  0.00000000E+00
  0.00000000E+00  0.00000000E+00  0.00000000E+00
  0.00000000E+00  0.00000000E+00  0.00000000E+00
  0.00000000E+00  0.00000000E+00  0.00000000E+00
  0.00000000E+00  0.00000000E+00  0.00000000E+00
  0.00000000E+00  0.00000000E+00  0.00000000E+00
  0.00000000E+00  0.00000000E+00  0.00000000E+00
  0.00000000E+00  0.00000000E+00  0.00000000E+00
  0.00000000E+00  0.00000000E+00  0.00000000E+00
