#12 (C 2/m) [unique axis c] cell choice 
   8.26992000242977     
     0.2670849002255254    0.0000000000000000   -0.7508323033673119
    -0.4995871225756349    0.3500117919674228   -0.0002767193227241
     0.4995871225756349    0.3500117919674228    0.0002767193227241
   Co   Fe   Ta
     2     8     2
Direct
  0.0000000000000000  0.2658881735175012  0.2658881735175012
  0.0000000000000000  0.7341118264824988  0.7341118264824988
  0.6741277205253010  0.9116281294128372  0.5850448813563235
  0.3258722794746989  0.5850448813563235  0.9116281294128372
  0.3258722794746989  0.0883718705871628  0.4149551186436766
  0.6741277205253010  0.4149551186436766  0.0883718705871628
  0.0014641841287427  0.7506119747074046  0.2493880252925954
  0.9985358158712572  0.2493880252925954  0.7506119747074046
  0.6626065036295072  0.4143188123269860  0.5856811876730139
  0.3373934963704927  0.5856811876730139  0.4143188123269860
  0.3300316017963309  0.0885190067858821  0.9114809932141179
  0.6699683982036690  0.9114809932141179  0.0885190067858821
 
  0.00000000E+00  0.00000000E+00  0.00000000E+00
  0.00000000E+00  0.00000000E+00  0.00000000E+00
  0.00000000E+00  0.00000000E+00  0.00000000E+00
  0.00000000E+00  0.00000000E+00  0.00000000E+00
  0.00000000E+00  0.00000000E+00  0.00000000E+00
  0.00000000E+00  0.00000000E+00  0.00000000E+00
  0.00000000E+00  0.00000000E+00  0.00000000E+00
  0.00000000E+00  0.00000000E+00  0.00000000E+00
  0.00000000E+00  0.00000000E+00  0.00000000E+00
  0.00000000E+00  0.00000000E+00  0.00000000E+00
  0.00000000E+00  0.00000000E+00  0.00000000E+00
  0.00000000E+00  0.00000000E+00  0.00000000E+00
