#10 (P 2/m) [unique axis c]             
   5.05700999644009     
     0.0167854022742940    0.0000000000000000   -1.4253334571282572
    -0.9990902962002957    0.0000000000000000    0.0015651081015828
     0.0000000000000000    0.8094791034414340    0.0000000000000000
   Co   Fe   Ta
     2     8     2
Direct
  0.3392617068699099  0.1688930154889294  0.0000000000000000
  0.6607382931300901  0.8311069845110777 -0.0000000000000000
  0.5000000000000000  0.0000000000000000  0.5000000000000000
  0.3271766513366026  0.6734603732107892 -0.0000000000000000
  0.6728233486633975  0.3265396267892109 -0.0000000000000000
  0.1613305189554142  0.3316438450065367  0.5000000000000000
  0.8386694810445857  0.6683561549934633  0.5000000000000000
 -0.0000000000000000  0.5000000000000000  0.0000000000000000
  0.1721651860271369  0.8274158752172101  0.5000000000000000
  0.8278348139728632  0.1725841247827899  0.5000000000000000
  0.5000000000000000  0.5000000000000000  0.5000000000000000
 -0.0000000000000000  0.0000000000000000  0.0000000000000000
 
  0.00000000E+00  0.00000000E+00  0.00000000E+00
  0.00000000E+00  0.00000000E+00  0.00000000E+00
  0.00000000E+00  0.00000000E+00  0.00000000E+00
  0.00000000E+00  0.00000000E+00  0.00000000E+00
  0.00000000E+00  0.00000000E+00  0.00000000E+00
  0.00000000E+00  0.00000000E+00  0.00000000E+00
  0.00000000E+00  0.00000000E+00  0.00000000E+00
  0.00000000E+00  0.00000000E+00  0.00000000E+00
  0.00000000E+00  0.00000000E+00  0.00000000E+00
  0.00000000E+00  0.00000000E+00  0.00000000E+00
  0.00000000E+00  0.00000000E+00  0.00000000E+00
  0.00000000E+00  0.00000000E+00  0.00000000E+00
