#6 (P m) [unique axis c]                
   5.04682999708107     
     0.0335578559259402    0.0000000000000000   -1.4135433558138104
    -0.9982229555716655    0.0000000000000000    0.0006015178309498
     0.0000000000000000    0.8211322247028944    0.0000000000000000
   Co   Fe   Ta
     2     8     2
Direct
  0.3115624299003004  0.3321206180928508 -0.0000000000000000
  0.9998054697720024  0.0001698197415238  0.0000000000000000
  0.6653147045696473  0.6664194371585465 -0.0000000000000000
  0.9931916842495424  0.5064072578074872  0.0000000000000000
  0.1522408785411493  0.1713866520394163  0.5000000000000000
  0.1485897817285774  0.6767005943435054  0.5000000000000000
  0.8335089149957460  0.3436440306901182  0.5000000000000000
  0.8286930032400892  0.8387820656660280  0.5000000000000000
  0.4804689745961792  0.0127626717232856  0.5000000000000000
  0.3189398734396124  0.8370159946011543 -0.0000000000000000
  0.6631859177453238  0.1602951631841619  0.0000000000000000
  0.4845983672218149  0.5178856949519270  0.5000000000000000
 
  0.00000000E+00  0.00000000E+00  0.00000000E+00
  0.00000000E+00  0.00000000E+00  0.00000000E+00
  0.00000000E+00  0.00000000E+00  0.00000000E+00
  0.00000000E+00  0.00000000E+00  0.00000000E+00
  0.00000000E+00  0.00000000E+00  0.00000000E+00
  0.00000000E+00  0.00000000E+00  0.00000000E+00
  0.00000000E+00  0.00000000E+00  0.00000000E+00
  0.00000000E+00  0.00000000E+00  0.00000000E+00
  0.00000000E+00  0.00000000E+00  0.00000000E+00
  0.00000000E+00  0.00000000E+00  0.00000000E+00
  0.00000000E+00  0.00000000E+00  0.00000000E+00
  0.00000000E+00  0.00000000E+00  0.00000000E+00
