#71-I2/m2/m2/m                          
   1.00000000051272     
     3.0843872356448294    0.0000000000000000    0.0000000000000000
     0.0000000000000000    4.0570205781720849    0.0000000000000000
     0.0000000000000000    0.0000000000000000    8.2627326277033468
   Fe   Nb
     6     2
Direct
  0.5000000000000000  0.0000000000000000  0.7548906173931655
  0.5000000000000000  0.0000000000000000  0.2451093826068345
  0.0000000000000000  0.5000000000000000  0.2548906173931655
  0.0000000000000000  0.5000000000000000  0.7451093826068345
  0.0000000000000000  0.0000000000000000  0.0000000000000000
  0.5000000000000000  0.5000000000000000  0.5000000000000000
  0.5000000000000000  0.5000000000000000  0.0000000000000000
  0.0000000000000000  0.0000000000000000  0.5000000000000000
 
  0.00000000E+00  0.00000000E+00  0.00000000E+00
  0.00000000E+00  0.00000000E+00  0.00000000E+00
  0.00000000E+00  0.00000000E+00  0.00000000E+00
  0.00000000E+00  0.00000000E+00  0.00000000E+00
  0.00000000E+00  0.00000000E+00  0.00000000E+00
  0.00000000E+00  0.00000000E+00  0.00000000E+00
  0.00000000E+00  0.00000000E+00  0.00000000E+00
  0.00000000E+00  0.00000000E+00  0.00000000E+00
