#74-I21/m21/m21/a                       
  0.999999999796360     
     4.1016496492526731    0.0000000000000000    0.0000000000000000
     0.0000000000000000    3.0393297559497010    0.0000000000000000
     0.0000000000000000    0.0000000000000000   16.6274752569328257
   Fe   Nb
    12     4
Direct
  0.0000000000000000  0.2500000000000000  0.4403944053956081
  0.0000000000000000  0.7500000000000000  0.5596055946043919
  0.5000000000000000  0.7500000000000000  0.9403944053956081
  0.5000000000000000  0.2500000000000000  0.0596055946043919
  0.0000000000000000  0.2500000000000000  0.6856936329462329
  0.0000000000000000  0.7500000000000000  0.3143063670537671
  0.5000000000000000  0.7500000000000000  0.1856936329462329
  0.5000000000000000  0.2500000000000000  0.8143063670537671
  0.0000000000000000  0.2500000000000000  0.9430004802078358
  0.0000000000000000  0.7500000000000000  0.0569995197921642
  0.5000000000000000  0.7500000000000000  0.4430004802078358
  0.5000000000000000  0.2500000000000000  0.5569995197921642
  0.0000000000000000  0.2500000000000000  0.1812943971859937
  0.0000000000000000  0.7500000000000000  0.8187056028140063
  0.5000000000000000  0.7500000000000000  0.6812943971859937
  0.5000000000000000  0.2500000000000000  0.3187056028140063
 
  0.00000000E+00  0.00000000E+00  0.00000000E+00
  0.00000000E+00  0.00000000E+00  0.00000000E+00
  0.00000000E+00  0.00000000E+00  0.00000000E+00
  0.00000000E+00  0.00000000E+00  0.00000000E+00
  0.00000000E+00  0.00000000E+00  0.00000000E+00
  0.00000000E+00  0.00000000E+00  0.00000000E+00
  0.00000000E+00  0.00000000E+00  0.00000000E+00
  0.00000000E+00  0.00000000E+00  0.00000000E+00
  0.00000000E+00  0.00000000E+00  0.00000000E+00
  0.00000000E+00  0.00000000E+00  0.00000000E+00
  0.00000000E+00  0.00000000E+00  0.00000000E+00
  0.00000000E+00  0.00000000E+00  0.00000000E+00
  0.00000000E+00  0.00000000E+00  0.00000000E+00
  0.00000000E+00  0.00000000E+00  0.00000000E+00
  0.00000000E+00  0.00000000E+00  0.00000000E+00
  0.00000000E+00  0.00000000E+00  0.00000000E+00
