#12-C12/m1                              
   1.00000000069604     
     8.9178975918418661    0.0000000000000000    0.0092828581409167
     0.0000000000000000    4.1507098913721885    0.0000000000000000
    -1.9952602791421743    0.0000000000000000    5.5708544664493411
   Fe   Nb
    12     4
Direct
  0.1182789684146215  0.0000000000000000  0.4407543944783114
  0.8817210315853785  0.0000000000000000  0.5592456055216886
  0.6182789684146215  0.5000000000000000  0.4407543944783114
  0.3817210315853785  0.5000000000000000  0.5592456055216886
  0.6260854220011183  0.0000000000000000  0.6864367144348975
  0.3739145779988817  0.0000000000000000  0.3135632855651025
  0.1260854220011183  0.5000000000000000  0.6864367144348975
  0.8739145779988817  0.5000000000000000  0.3135632855651025
  0.8790393333346103  0.0000000000000000  0.0682051690454983
  0.1209606666653897  0.0000000000000000  0.9317948309545017
  0.3790393333346103  0.5000000000000000  0.0682051690454983
  0.6209606666653897  0.5000000000000000  0.9317948309545017
  0.6343999335726949  0.0000000000000000  0.1993068651364993
  0.3656000664273051  0.0000000000000000  0.8006931348635007
  0.1343999335726949  0.5000000000000000  0.1993068651364993
  0.8656000664273051  0.5000000000000000  0.8006931348635007
 
  0.00000000E+00  0.00000000E+00  0.00000000E+00
  0.00000000E+00  0.00000000E+00  0.00000000E+00
  0.00000000E+00  0.00000000E+00  0.00000000E+00
  0.00000000E+00  0.00000000E+00  0.00000000E+00
  0.00000000E+00  0.00000000E+00  0.00000000E+00
  0.00000000E+00  0.00000000E+00  0.00000000E+00
  0.00000000E+00  0.00000000E+00  0.00000000E+00
  0.00000000E+00  0.00000000E+00  0.00000000E+00
  0.00000000E+00  0.00000000E+00  0.00000000E+00
  0.00000000E+00  0.00000000E+00  0.00000000E+00
  0.00000000E+00  0.00000000E+00  0.00000000E+00
  0.00000000E+00  0.00000000E+00  0.00000000E+00
  0.00000000E+00  0.00000000E+00  0.00000000E+00
  0.00000000E+00  0.00000000E+00  0.00000000E+00
  0.00000000E+00  0.00000000E+00  0.00000000E+00
  0.00000000E+00  0.00000000E+00  0.00000000E+00
