#123-P4/m2/m2/m                         
   1.00000000105485     
     3.0105626912538526    0.0000000000000000    0.0000000000000000
     0.0000000000000000    3.0105626912538526    0.0000000000000000
     0.0000000000000000    0.0000000000000000    5.7101049264725487
   Fe   Nb
     3     1
Direct
  0.0000000000000000  0.0000000000000000  0.0000000000000000
  0.5000000000000000  0.5000000000000000  0.7627722629263758
  0.5000000000000000  0.5000000000000000  0.2372277370736242
  0.0000000000000000  0.0000000000000000  0.5000000000000000
 
  0.00000000E+00  0.00000000E+00  0.00000000E+00
  0.00000000E+00  0.00000000E+00  0.00000000E+00
  0.00000000E+00  0.00000000E+00  0.00000000E+00
  0.00000000E+00  0.00000000E+00  0.00000000E+00
