#40-Ama2                                
  0.999999999389112     
     4.6647784806168664    0.0000000000000000    0.0000000000000000
     0.0000000000000000    5.8868186568373995    0.0000000000000000
     0.0000000000000000    0.0000000000000000    7.5301837369120870
   Fe   Nb
    12     4
Direct
  0.2500000000000000  0.8567247648994041  0.1128982846073612
  0.7500000000000000  0.1432752351005959  0.1128982846073612
  0.2500000000000000  0.3567247648994041  0.6128982846073612
  0.7500000000000000  0.6432752351005959  0.6128982846073612
  0.2500000000000000  0.6617134561542386  0.8104788852934917
  0.7500000000000000  0.3382865438457614  0.8104788852934917
  0.2500000000000000  0.1617134561542386  0.3104788852934917
  0.7500000000000000  0.8382865438457614  0.3104788852934917
  0.0000000000000000  0.0000000000000000  0.6122374003738571
  0.5000000000000000  0.0000000000000000  0.6122374003738571
  0.0000000000000000  0.5000000000000000  0.1122374003738571
  0.5000000000000000  0.5000000000000000  0.1122374003738571
  0.2500000000000000  0.6775644311941420  0.4152154297252935
  0.7500000000000000  0.3224355688058580  0.4152154297252935
  0.2500000000000000  0.1775644311941420  0.9152154297252935
  0.7500000000000000  0.8224355688058580  0.9152154297252935
 
  0.00000000E+00  0.00000000E+00  0.00000000E+00
  0.00000000E+00  0.00000000E+00  0.00000000E+00
  0.00000000E+00  0.00000000E+00  0.00000000E+00
  0.00000000E+00  0.00000000E+00  0.00000000E+00
  0.00000000E+00  0.00000000E+00  0.00000000E+00
  0.00000000E+00  0.00000000E+00  0.00000000E+00
  0.00000000E+00  0.00000000E+00  0.00000000E+00
  0.00000000E+00  0.00000000E+00  0.00000000E+00
  0.00000000E+00  0.00000000E+00  0.00000000E+00
  0.00000000E+00  0.00000000E+00  0.00000000E+00
  0.00000000E+00  0.00000000E+00  0.00000000E+00
  0.00000000E+00  0.00000000E+00  0.00000000E+00
  0.00000000E+00  0.00000000E+00  0.00000000E+00
  0.00000000E+00  0.00000000E+00  0.00000000E+00
  0.00000000E+00  0.00000000E+00  0.00000000E+00
  0.00000000E+00  0.00000000E+00  0.00000000E+00
