#11-P121/m1                             
   1.00000000109275     
     4.8684903258808516    0.0000000000000000   -0.0014220671081449
     0.0000000000000000    4.2279526697402865    0.0000000000000000
    -0.7344515686866786    0.0000000000000000    5.0307536989789847
   Fe   Nb
     6     2
Direct
  0.8607571970431138  0.2500000000000000  0.3008549644260441
  0.1392428029568862  0.7500000000000000  0.6991450355739559
  0.3678960159069931  0.2500000000000000  0.5543032771113090
  0.6321039840930069  0.7500000000000000  0.4456967228886910
  0.3819652002950136  0.2500000000000000  0.0595347781475866
  0.6180347997049864  0.7500000000000000  0.9404652218524134
  0.8689540487985283  0.2500000000000000  0.7964138903797249
  0.1310459512014717  0.7500000000000000  0.2035861096202751
 
  0.00000000E+00  0.00000000E+00  0.00000000E+00
  0.00000000E+00  0.00000000E+00  0.00000000E+00
  0.00000000E+00  0.00000000E+00  0.00000000E+00
  0.00000000E+00  0.00000000E+00  0.00000000E+00
  0.00000000E+00  0.00000000E+00  0.00000000E+00
  0.00000000E+00  0.00000000E+00  0.00000000E+00
  0.00000000E+00  0.00000000E+00  0.00000000E+00
  0.00000000E+00  0.00000000E+00  0.00000000E+00
