#63-C2/m2/c21/m                         
   1.00000000040727     
     5.7687443930533533    0.0000000000000000    0.0000000000000000
     0.0000000000000000    8.4116654315634847    0.0000000000000000
     0.0000000000000000    0.0000000000000000    4.2162160140480438
   Fe   Nb
    12     4
Direct
  0.2554620462026520  0.3835320598312464  0.2500000000000000
  0.2554620462026520  0.6164679401687536  0.7500000000000000
  0.7445379537973480  0.3835320598312464  0.2500000000000000
  0.7445379537973480  0.6164679401687536  0.7500000000000000
  0.7554620462026520  0.8835320598312464  0.2500000000000000
  0.7554620462026520  0.1164679401687536  0.7500000000000000
  0.2445379537973480  0.8835320598312464  0.2500000000000000
  0.2445379537973480  0.1164679401687536  0.7500000000000000
  0.0000000000000000  0.1252056382619671  0.2500000000000000
  0.0000000000000000  0.8747943617380329  0.7500000000000000
  0.5000000000000000  0.6252056382619671  0.2500000000000000
  0.5000000000000000  0.3747943617380329  0.7500000000000000
  0.0000000000000000  0.6361605580796521  0.2500000000000000
  0.0000000000000000  0.3638394419203479  0.7500000000000000
  0.5000000000000000  0.1361605580796521  0.2500000000000000
  0.5000000000000000  0.8638394419203479  0.7500000000000000
 
  0.00000000E+00  0.00000000E+00  0.00000000E+00
  0.00000000E+00  0.00000000E+00  0.00000000E+00
  0.00000000E+00  0.00000000E+00  0.00000000E+00
  0.00000000E+00  0.00000000E+00  0.00000000E+00
  0.00000000E+00  0.00000000E+00  0.00000000E+00
  0.00000000E+00  0.00000000E+00  0.00000000E+00
  0.00000000E+00  0.00000000E+00  0.00000000E+00
  0.00000000E+00  0.00000000E+00  0.00000000E+00
  0.00000000E+00  0.00000000E+00  0.00000000E+00
  0.00000000E+00  0.00000000E+00  0.00000000E+00
  0.00000000E+00  0.00000000E+00  0.00000000E+00
  0.00000000E+00  0.00000000E+00  0.00000000E+00
  0.00000000E+00  0.00000000E+00  0.00000000E+00
  0.00000000E+00  0.00000000E+00  0.00000000E+00
  0.00000000E+00  0.00000000E+00  0.00000000E+00
  0.00000000E+00  0.00000000E+00  0.00000000E+00
