#123-P4/m2/m2/m                         
   1.00000000321093     
     4.0564638072107506    0.0000000000000000    0.0000000000000000
     0.0000000000000000    4.0564638072107506    0.0000000000000000
     0.0000000000000000    0.0000000000000000    3.0992053212534754
   Fe   Nb
     3     1
Direct
  0.0000000000000000  0.5000000000000000  0.5000000000000000
  0.5000000000000000  0.0000000000000000  0.5000000000000000
  0.5000000000000000  0.5000000000000000  0.0000000000000000
  0.0000000000000000  0.0000000000000000  0.0000000000000000
 
  0.00000000E+00  0.00000000E+00  0.00000000E+00
  0.00000000E+00  0.00000000E+00  0.00000000E+00
  0.00000000E+00  0.00000000E+00  0.00000000E+00
  0.00000000E+00  0.00000000E+00  0.00000000E+00
