#65-C2/m2/m2/m                          
  0.999999999945979     
     5.7269885201955049    0.0000000000000000    0.0000000000000000
     0.0000000000000000   11.7404571815052705    0.0000000000000000
     0.0000000000000000    0.0000000000000000    3.0570618619777803
   Fe   Nb
    12     4
Direct
  0.2500000000000000  0.2500000000000000  0.5000000000000000
  0.2500000000000000  0.7500000000000000  0.5000000000000000
  0.7500000000000000  0.2500000000000000  0.5000000000000000
  0.7500000000000000  0.7500000000000000  0.5000000000000000
  0.0000000000000000  0.1231651889406109  0.0000000000000000
  0.0000000000000000  0.8768348110593891  0.0000000000000000
  0.5000000000000000  0.6231651889406109  0.0000000000000000
  0.5000000000000000  0.3768348110593891  0.0000000000000000
  0.2392728301373523  0.0000000000000000  0.5000000000000000
  0.7607271698626477  0.0000000000000000  0.5000000000000000
  0.7392728301373523  0.5000000000000000  0.5000000000000000
  0.2607271698626477  0.5000000000000000  0.5000000000000000
  0.0000000000000000  0.6285441699522920  0.0000000000000000
  0.0000000000000000  0.3714558300477080  0.0000000000000000
  0.5000000000000000  0.1285441699522920  0.0000000000000000
  0.5000000000000000  0.8714558300477080  0.0000000000000000
 
  0.00000000E+00  0.00000000E+00  0.00000000E+00
  0.00000000E+00  0.00000000E+00  0.00000000E+00
  0.00000000E+00  0.00000000E+00  0.00000000E+00
  0.00000000E+00  0.00000000E+00  0.00000000E+00
  0.00000000E+00  0.00000000E+00  0.00000000E+00
  0.00000000E+00  0.00000000E+00  0.00000000E+00
  0.00000000E+00  0.00000000E+00  0.00000000E+00
  0.00000000E+00  0.00000000E+00  0.00000000E+00
  0.00000000E+00  0.00000000E+00  0.00000000E+00
  0.00000000E+00  0.00000000E+00  0.00000000E+00
  0.00000000E+00  0.00000000E+00  0.00000000E+00
  0.00000000E+00  0.00000000E+00  0.00000000E+00
  0.00000000E+00  0.00000000E+00  0.00000000E+00
  0.00000000E+00  0.00000000E+00  0.00000000E+00
  0.00000000E+00  0.00000000E+00  0.00000000E+00
  0.00000000E+00  0.00000000E+00  0.00000000E+00
