#2-P-1                                  
   1.00000000054834     
     4.8719252432290689   -0.0029043398055491    0.0054005212781226
    -0.3873456019519601    4.8665158389991268   -0.0082008360023014
    -0.3809181282175257   -2.3594601350209565    4.3695068700692721
   Fe   Nb
     6     2
Direct
  0.1326536419693625  0.3243926382638520  0.5686220001467888
  0.8673463580306375  0.6756073617361480  0.4313779998532112
  0.6347945992739881  0.5598046805318191  0.8229467310696066
  0.3652054007260119  0.4401953194681809  0.1770532689303934
  0.8826422893576265  0.1919452603651095  0.9336367322375239
  0.1173577106423735  0.8080547396348905  0.0663632677624761
  0.6389265829197015  0.0743715394994453  0.3102150890766708
  0.3610734170802985  0.9256284605005547  0.6897849109233292
 
  0.00000000E+00  0.00000000E+00  0.00000000E+00
  0.00000000E+00  0.00000000E+00  0.00000000E+00
  0.00000000E+00  0.00000000E+00  0.00000000E+00
  0.00000000E+00  0.00000000E+00  0.00000000E+00
  0.00000000E+00  0.00000000E+00  0.00000000E+00
  0.00000000E+00  0.00000000E+00  0.00000000E+00
  0.00000000E+00  0.00000000E+00  0.00000000E+00
  0.00000000E+00  0.00000000E+00  0.00000000E+00
