#25 (P m m 2)                           
   5.83413999822509     
     0.0000000000000000   -0.9833634907076223    0.0000000000000000
     0.9942394668542767    0.0000000000000000    0.0000000000000000
     0.0000000000000000    0.0000000000000000    1.9995245900151295
   Co   Fe   Ta
     4    24     4
Direct
  0.5000000000000000  0.5000000000000000  0.7492957619755343
  0.0000000000000000  0.5000000000000000  0.2492978927773120
  0.5000000000000000 -0.0000000000000000  0.4999034791220489
  0.0000000000000000 -0.0000000000000000  0.9999050029305094
  0.5000000000000000  0.5000000000000000  0.4999570580457879
  0.0000000000000000  0.5000000000000000  0.9999663117638188
  0.5000000000000000 -0.0000000000000000  0.0019104381429957
  0.0000000000000000 -0.0000000000000000  0.5019105505515488
  0.2410846868089807  0.2441535746934937  0.1246123002699416
  0.7589153131910193  0.7558464253065063  0.1246123002699416
  0.7589153131910193  0.2441535746934937  0.1246123002699416
  0.2410846868089807  0.7558464253065063  0.1246123002699416
  0.7410805131839547  0.2441587836349709  0.6246094554750391
  0.2589194868160452  0.7558412163650291  0.6246094554750391
  0.2589194868160452  0.2441587836349709  0.6246094554750391
  0.7410805131839547  0.7558412163650291  0.6246094554750391
  0.7487947693684477  0.7639877370335094  0.3750670870289399
  0.2512052306315523  0.2360122629664906  0.3750670870289399
  0.2512052306315523  0.7639877370335094  0.3750670870289399
  0.7487947693684477  0.2360122629664906  0.3750670870289399
  0.2487910311522815  0.7639863302239496  0.8750703686898920
  0.7512089688477185  0.2360136697760505  0.8750703686898920
  0.7512089688477185  0.7639863302239496  0.8750703686898920
  0.2487910311522815  0.2360136697760505  0.8750703686898920
  0.5000000000000000  0.0000000000000000  0.7503578193464601
  0.0000000000000000 -0.0000000000000000  0.2503564147999426
  0.5000000000000000 -0.0000000000000000  0.2466947992273302
  0.0000000000000000  0.0000000000000000  0.7466927663992017
  0.5000000000000000  0.5000000000000000  0.9954469646222084
  0.0000000000000000  0.5000000000000000  0.4954466397697155
  0.5000000000000000  0.5000000000000000  0.2536044891108011
  0.0000000000000000  0.5000000000000000  0.7536067655595015
 
  0.00000000E+00  0.00000000E+00  0.00000000E+00
  0.00000000E+00  0.00000000E+00  0.00000000E+00
  0.00000000E+00  0.00000000E+00  0.00000000E+00
  0.00000000E+00  0.00000000E+00  0.00000000E+00
  0.00000000E+00  0.00000000E+00  0.00000000E+00
  0.00000000E+00  0.00000000E+00  0.00000000E+00
  0.00000000E+00  0.00000000E+00  0.00000000E+00
  0.00000000E+00  0.00000000E+00  0.00000000E+00
  0.00000000E+00  0.00000000E+00  0.00000000E+00
  0.00000000E+00  0.00000000E+00  0.00000000E+00
  0.00000000E+00  0.00000000E+00  0.00000000E+00
  0.00000000E+00  0.00000000E+00  0.00000000E+00
  0.00000000E+00  0.00000000E+00  0.00000000E+00
  0.00000000E+00  0.00000000E+00  0.00000000E+00
  0.00000000E+00  0.00000000E+00  0.00000000E+00
  0.00000000E+00  0.00000000E+00  0.00000000E+00
  0.00000000E+00  0.00000000E+00  0.00000000E+00
  0.00000000E+00  0.00000000E+00  0.00000000E+00
  0.00000000E+00  0.00000000E+00  0.00000000E+00
  0.00000000E+00  0.00000000E+00  0.00000000E+00
  0.00000000E+00  0.00000000E+00  0.00000000E+00
  0.00000000E+00  0.00000000E+00  0.00000000E+00
  0.00000000E+00  0.00000000E+00  0.00000000E+00
  0.00000000E+00  0.00000000E+00  0.00000000E+00
  0.00000000E+00  0.00000000E+00  0.00000000E+00
  0.00000000E+00  0.00000000E+00  0.00000000E+00
  0.00000000E+00  0.00000000E+00  0.00000000E+00
  0.00000000E+00  0.00000000E+00  0.00000000E+00
  0.00000000E+00  0.00000000E+00  0.00000000E+00
  0.00000000E+00  0.00000000E+00  0.00000000E+00
  0.00000000E+00  0.00000000E+00  0.00000000E+00
  0.00000000E+00  0.00000000E+00  0.00000000E+00
