#8-C1m1                                 
   1.00000000030417     
    12.3373349367421365    0.0000000000000000   -0.0064289108472260
     0.0000000000000000    4.0743651080679859    0.0000000000000000
    -2.6843719722517507    0.0000000000000000    7.6894202464256738
   Co   Fe   Ta
     4    24     4
Direct
  0.4598925150526881  0.0000000000000000  0.4135772069654257
  0.9598925150526881  0.5000000000000000  0.4135772069654257
  0.9603652735489359  0.0000000000000000  0.1662079785279032
  0.4603652735489359  0.5000000000000000  0.1662079785279032
  0.8389116252416237  0.0000000000000000  0.3552966367065187
  0.3389116252416308  0.5000000000000000  0.3552966367065187
  0.2205007683641811 -0.0000000000000000  0.2953566852030359
  0.7205007683641740  0.5000000000000000  0.2953566852030359
  0.3420832654457259 -0.0000000000000000  0.1051683665472161
  0.8420832654457260  0.5000000000000000  0.1051683665472161
  0.7206560703070501 -0.0000000000000000  0.5445918925451753
  0.2206560703070501  0.5000000000000000  0.5445918925451753
  0.7212271705810520 -0.0000000000000000  0.0458457647030222
  0.2212271705810520  0.5000000000000000  0.0458457647030222
  0.3422791181780956 -0.0000000000000000  0.6065140932338230
  0.8422791181780958  0.5000000000000000  0.6065140932338230
  0.5925652746271222 -0.0000000000000000  0.2309422955983577
  0.0925652746271223  0.5000000000000000  0.2309422955983577
  0.8401025467747227 -0.0000000000000000  0.8539851836736095
  0.3401025467747228  0.5000000000000000  0.8539851836736095
  0.5917315997041829 -0.0000000000000000  0.7308944459268497
  0.0917315997041828  0.5000000000000000  0.7308944459268497
  0.4614759632271604  0.0000000000000000  0.9161275951186008
  0.9614759632271604  0.5000000000000000  0.9161275951186008
  0.2213001617416474  0.0000000000000000  0.7950916244829199
  0.7213001617416472  0.5000000000000000  0.7950916244829199
  0.9610480907518675  0.0000000000000000  0.6641106663884963
  0.4610480907518675  0.5000000000000000  0.6641106663884963
  0.0911644807071731 -0.0000000000000000  0.9793971623862411
  0.5911644807071730  0.5000000000000000  0.9793971623862411
  0.0914860757467693 -0.0000000000000000  0.4816624019928052
  0.5914860757467693  0.5000000000000000  0.4816624019928052
 
  0.00000000E+00  0.00000000E+00  0.00000000E+00
  0.00000000E+00  0.00000000E+00  0.00000000E+00
  0.00000000E+00  0.00000000E+00  0.00000000E+00
  0.00000000E+00  0.00000000E+00  0.00000000E+00
  0.00000000E+00  0.00000000E+00  0.00000000E+00
  0.00000000E+00  0.00000000E+00  0.00000000E+00
  0.00000000E+00  0.00000000E+00  0.00000000E+00
  0.00000000E+00  0.00000000E+00  0.00000000E+00
  0.00000000E+00  0.00000000E+00  0.00000000E+00
  0.00000000E+00  0.00000000E+00  0.00000000E+00
  0.00000000E+00  0.00000000E+00  0.00000000E+00
  0.00000000E+00  0.00000000E+00  0.00000000E+00
  0.00000000E+00  0.00000000E+00  0.00000000E+00
  0.00000000E+00  0.00000000E+00  0.00000000E+00
  0.00000000E+00  0.00000000E+00  0.00000000E+00
  0.00000000E+00  0.00000000E+00  0.00000000E+00
  0.00000000E+00  0.00000000E+00  0.00000000E+00
  0.00000000E+00  0.00000000E+00  0.00000000E+00
  0.00000000E+00  0.00000000E+00  0.00000000E+00
  0.00000000E+00  0.00000000E+00  0.00000000E+00
  0.00000000E+00  0.00000000E+00  0.00000000E+00
  0.00000000E+00  0.00000000E+00  0.00000000E+00
  0.00000000E+00  0.00000000E+00  0.00000000E+00
  0.00000000E+00  0.00000000E+00  0.00000000E+00
  0.00000000E+00  0.00000000E+00  0.00000000E+00
  0.00000000E+00  0.00000000E+00  0.00000000E+00
  0.00000000E+00  0.00000000E+00  0.00000000E+00
  0.00000000E+00  0.00000000E+00  0.00000000E+00
  0.00000000E+00  0.00000000E+00  0.00000000E+00
  0.00000000E+00  0.00000000E+00  0.00000000E+00
  0.00000000E+00  0.00000000E+00  0.00000000E+00
  0.00000000E+00  0.00000000E+00  0.00000000E+00
