#139-I4/m2/m2/m                         
   1.00000000048051     
     4.0642793457752093    0.0000000000000000    0.0000000000000000
     0.0000000000000000    4.0642793457752093    0.0000000000000000
     0.0000000000000000    0.0000000000000000   11.6977282935431219
   Co   Fe   Ta
     2    12     2
Direct
  0.0000000000000000  0.0000000000000000  0.0000000000000000
  0.5000000000000000  0.5000000000000000  0.5000000000000000
 -0.0000000000000000  0.5000000000000000  0.1302350575370025
  0.0000000000000000  0.5000000000000000  0.8697649424629975
  0.5000000000000000 -0.0000000000000000  0.8697649424629975
  0.5000000000000000  0.0000000000000000  0.1302350575370025
  0.5000000000000000  0.0000000000000000  0.6302350575370025
  0.5000000000000000 -0.0000000000000000  0.3697649424629975
  0.0000000000000000  0.5000000000000000  0.3697649424629975
 -0.0000000000000000  0.5000000000000000  0.6302350575370025
  0.0000000000000000 -0.0000000000000000  0.2492603995118277
 -0.0000000000000000  0.0000000000000000  0.7507396004881725
  0.5000000000000000  0.5000000000000000  0.7492603995118275
  0.5000000000000000  0.5000000000000000  0.2507396004881724
  0.0000000000000000  0.0000000000000000  0.5000000000000000
  0.5000000000000000  0.5000000000000000  0.0000000000000000
 
  0.00000000E+00  0.00000000E+00  0.00000000E+00
  0.00000000E+00  0.00000000E+00  0.00000000E+00
  0.00000000E+00  0.00000000E+00  0.00000000E+00
  0.00000000E+00  0.00000000E+00  0.00000000E+00
  0.00000000E+00  0.00000000E+00  0.00000000E+00
  0.00000000E+00  0.00000000E+00  0.00000000E+00
  0.00000000E+00  0.00000000E+00  0.00000000E+00
  0.00000000E+00  0.00000000E+00  0.00000000E+00
  0.00000000E+00  0.00000000E+00  0.00000000E+00
  0.00000000E+00  0.00000000E+00  0.00000000E+00
  0.00000000E+00  0.00000000E+00  0.00000000E+00
  0.00000000E+00  0.00000000E+00  0.00000000E+00
  0.00000000E+00  0.00000000E+00  0.00000000E+00
  0.00000000E+00  0.00000000E+00  0.00000000E+00
  0.00000000E+00  0.00000000E+00  0.00000000E+00
  0.00000000E+00  0.00000000E+00  0.00000000E+00
