#123 (P 4/m m m)                        
   5.73226999611133     
     0.9974944792276027    0.0000000000000000    0.0000000000000000
     0.0000000000000000    0.9974944792276027    0.0000000000000000
    -0.0000000000000000    0.0000000000000000    0.5204152738697663
   Co   Fe   Ta
     1     6     1
Direct
 -0.0000000000000000 -0.0000000000000000  0.0000000000000000
  0.2406004470284354  0.2406004470284354  0.5000000000000000
  0.2406004470284354  0.7593995529715647  0.5000000000000000
  0.7593995529715647  0.2406004470284354  0.5000000000000000
  0.7593995529715647  0.7593995529715647  0.5000000000000000
 -0.0000000000000000  0.5000000000000000  0.0000000000000000
  0.5000000000000000 -0.0000000000000000  0.0000000000000000
  0.5000000000000000  0.5000000000000000  0.0000000000000000
 
  0.00000000E+00  0.00000000E+00  0.00000000E+00
  0.00000000E+00  0.00000000E+00  0.00000000E+00
  0.00000000E+00  0.00000000E+00  0.00000000E+00
  0.00000000E+00  0.00000000E+00  0.00000000E+00
  0.00000000E+00  0.00000000E+00  0.00000000E+00
  0.00000000E+00  0.00000000E+00  0.00000000E+00
  0.00000000E+00  0.00000000E+00  0.00000000E+00
  0.00000000E+00  0.00000000E+00  0.00000000E+00
