#1 (P 1)                                
   5.78106000376856     
     0.9969515248402632   -0.0000699480282290    0.0000565272492024
     0.0011435870108951    1.0082747000482746    0.0001037689700179
     0.0002207172410177    0.5019860030452136    0.9975230353229652
   Co   Fe   Ta
     2    12     2
Direct
  0.0000597049643414  0.7649541850323799  0.4985993934295030
  0.0000618255975963  0.9999007090806380  0.0000784257528044
  0.7500400589999487  0.1410455317737369  0.2501758157240123
  0.5002834253344620  0.5273448977258351  0.9988601039277911
  0.5000187901217413  0.7651140996377422  0.4989684739761313
  0.7503188275334187  0.6391413325712340  0.2502716928138576
  0.5002537269363634  0.2646647099759749  0.4998193882882975
  0.4999786255881533  0.0019719323978874  0.9996556230009664
  0.7484960302856861  0.8907952328516833  0.7453647457661242
  0.0002244807105667  0.2642631219119304  0.4999381749651246
  0.2503543071631136  0.3906532022263755  0.7483849070710185
  0.2500371214018561  0.8904977730065003  0.7483643866044395
  0.0001541010795801  0.5277559376347911  0.9986985691932617
  0.2516445464306049  0.6371429605232958  0.2531956068267628
  0.7488915504655883  0.3859139227063649  0.7553928211724295
  0.2513728773869849  0.1439104509436379  0.2432018714875056
 
  0.00000000E+00  0.00000000E+00  0.00000000E+00
  0.00000000E+00  0.00000000E+00  0.00000000E+00
  0.00000000E+00  0.00000000E+00  0.00000000E+00
  0.00000000E+00  0.00000000E+00  0.00000000E+00
  0.00000000E+00  0.00000000E+00  0.00000000E+00
  0.00000000E+00  0.00000000E+00  0.00000000E+00
  0.00000000E+00  0.00000000E+00  0.00000000E+00
  0.00000000E+00  0.00000000E+00  0.00000000E+00
  0.00000000E+00  0.00000000E+00  0.00000000E+00
  0.00000000E+00  0.00000000E+00  0.00000000E+00
  0.00000000E+00  0.00000000E+00  0.00000000E+00
  0.00000000E+00  0.00000000E+00  0.00000000E+00
  0.00000000E+00  0.00000000E+00  0.00000000E+00
  0.00000000E+00  0.00000000E+00  0.00000000E+00
  0.00000000E+00  0.00000000E+00  0.00000000E+00
  0.00000000E+00  0.00000000E+00  0.00000000E+00
