#8 (C m) [unique axis c] cell choice 1  
   8.17396000685152     
     0.4970828935344129    0.0000000000000000   -1.2738418767267450
    -0.4989926317014297    0.2795899284694469   -0.0001483439829807
     0.4989926317014297    0.2795899284694469    0.0001483439829807
   Co   Fe   Ta
     2    12     2
Direct
  0.5264775535265979  0.9248887406420487  0.0751112593579513
  0.0004400848726677  0.0005706901976629  0.9994293098023372
  0.5269953891278613  0.6015816276996495  0.3984183723003505
  0.1155489947918091  0.7238870339877612  0.2761129660122387
  0.7017261426115967  0.5143170823124119  0.4856829176875881
  0.7007544288093495  0.1879873999742882  0.8120126000257119
  0.9036669769024734  0.4528115881219523  0.5471884118780476
  0.9041071538740678  0.4527867039385778  0.0470644427847896
  0.9041071538740678  0.9529355572152105  0.5472132960614222
  0.3259113844407355  0.1635088805212981  0.3362376387283667
  0.3259113844407355  0.6637623612716333  0.8364911194787018
  0.1148739665540629  0.3930892844888551  0.6069107155111447
  0.3249142743228168  0.6627377633587735  0.3372622366412263
  0.2165157874609519  0.1085436726235594  0.8914563273764405
  0.4819684602304389  0.2424072758429240  0.7575927241570759
  0.7457308641597630  0.8737043378033775  0.1262956621966224
 
  0.00000000E+00  0.00000000E+00  0.00000000E+00
  0.00000000E+00  0.00000000E+00  0.00000000E+00
  0.00000000E+00  0.00000000E+00  0.00000000E+00
  0.00000000E+00  0.00000000E+00  0.00000000E+00
  0.00000000E+00  0.00000000E+00  0.00000000E+00
  0.00000000E+00  0.00000000E+00  0.00000000E+00
  0.00000000E+00  0.00000000E+00  0.00000000E+00
  0.00000000E+00  0.00000000E+00  0.00000000E+00
  0.00000000E+00  0.00000000E+00  0.00000000E+00
  0.00000000E+00  0.00000000E+00  0.00000000E+00
  0.00000000E+00  0.00000000E+00  0.00000000E+00
  0.00000000E+00  0.00000000E+00  0.00000000E+00
  0.00000000E+00  0.00000000E+00  0.00000000E+00
  0.00000000E+00  0.00000000E+00  0.00000000E+00
  0.00000000E+00  0.00000000E+00  0.00000000E+00
  0.00000000E+00  0.00000000E+00  0.00000000E+00
