#123 (P 4/m m m)                        
   4.07582999450910     
     0.9977740906280266    0.0000000000000000    0.0000000000000000
     0.0000000000000000    0.9977740906280266    0.0000000000000000
     0.0000000000000000    0.0000000000000000    1.4441160793205536
   Co   Fe   Ta
     1     6     1
Direct
 -0.0000000000000000 -0.0000000000000000 -0.0000000000000000
  0.5000000000000000 -0.0000000000000000  0.2380155761430174
  0.5000000000000000 -0.0000000000000000  0.7619844238569825
  0.0000000000000000  0.5000000000000000  0.7619844238569825
 -0.0000000000000000  0.5000000000000000  0.2380155761430174
  0.0000000000000000 -0.0000000000000000  0.5000000000000000
  0.5000000000000000  0.5000000000000000  0.0000000000000000
  0.5000000000000000  0.5000000000000000  0.5000000000000000
 
  0.00000000E+00  0.00000000E+00  0.00000000E+00
  0.00000000E+00  0.00000000E+00  0.00000000E+00
  0.00000000E+00  0.00000000E+00  0.00000000E+00
  0.00000000E+00  0.00000000E+00  0.00000000E+00
  0.00000000E+00  0.00000000E+00  0.00000000E+00
  0.00000000E+00  0.00000000E+00  0.00000000E+00
  0.00000000E+00  0.00000000E+00  0.00000000E+00
  0.00000000E+00  0.00000000E+00  0.00000000E+00
