#12 (C 2/m) [unique axis c] cell choice 
   11.5581999943584     
     0.0012965387963007    0.0000000000000000   -0.4987053233870654
    -0.4991214200545854    0.2519583323434059    0.0001002718521619
     0.4991214200545854    0.2519583323434059   -0.0001002718521619
   Co   Fe   Ta
     2    12     2
Direct
  0.0000000000000000  0.2347854402266438  0.2347854402266438
  0.0000000000000000  0.7652145597733563  0.7652145597733563
  0.0000000000000000  0.0000000000000000  0.5000000000000000
  0.0000000000000000  0.5000000000000000  0.0000000000000000
  0.5000000000000000  0.2376862049162683  0.2376862049162683
  0.5000000000000000  0.7623137950837316  0.7623137950837316
  0.7497646846489174  0.3743979006941714  0.6256020993058287
  0.2502353153510826  0.6256020993058287  0.3743979006941714
  0.5000000000000000  0.0000000000000000  0.5000000000000000
  0.5000000000000000  0.5000000000000000  0.0000000000000000
  0.7477881085708387  0.1277132430232917  0.8722867569767082
  0.2522118914291615  0.8722867569767082  0.1277132430232917
  0.2501089088265615  0.1253801623475408  0.8746198376524591
  0.7498910911734386  0.8746198376524591  0.1253801623475408
  0.7494815910160170  0.6225121960763639  0.3774878039236360
  0.2505184089839829  0.3774878039236360  0.6225121960763639
 
  0.00000000E+00  0.00000000E+00  0.00000000E+00
  0.00000000E+00  0.00000000E+00  0.00000000E+00
  0.00000000E+00  0.00000000E+00  0.00000000E+00
  0.00000000E+00  0.00000000E+00  0.00000000E+00
  0.00000000E+00  0.00000000E+00  0.00000000E+00
  0.00000000E+00  0.00000000E+00  0.00000000E+00
  0.00000000E+00  0.00000000E+00  0.00000000E+00
  0.00000000E+00  0.00000000E+00  0.00000000E+00
  0.00000000E+00  0.00000000E+00  0.00000000E+00
  0.00000000E+00  0.00000000E+00  0.00000000E+00
  0.00000000E+00  0.00000000E+00  0.00000000E+00
  0.00000000E+00  0.00000000E+00  0.00000000E+00
  0.00000000E+00  0.00000000E+00  0.00000000E+00
  0.00000000E+00  0.00000000E+00  0.00000000E+00
  0.00000000E+00  0.00000000E+00  0.00000000E+00
  0.00000000E+00  0.00000000E+00  0.00000000E+00
