#123 (P 4/m m m)                        
   4.05890999870717     
     1.0005575372671394    0.0000000000000000    0.0000000000000000
     0.0000000000000000    1.0005575372671394    0.0000000000000000
     0.0000000000000000    0.0000000000000000    1.4533143770962254
   Co   Fe   Ta
     1     6     1
Direct
 -0.0000000000000000 -0.0000000000000000  0.0000000000000000
  0.5000000000000000  0.0000000000000000  0.7623328264231873
  0.5000000000000000 -0.0000000000000000  0.2376671735768127
 -0.0000000000000000  0.5000000000000000  0.2376671735768127
 -0.0000000000000000  0.5000000000000000  0.7623328264231873
  0.5000000000000000  0.5000000000000000  0.5000000000000000
  0.5000000000000000  0.5000000000000000 -0.0000000000000000
 -0.0000000000000000  0.0000000000000000  0.5000000000000000
 
  0.00000000E+00  0.00000000E+00  0.00000000E+00
  0.00000000E+00  0.00000000E+00  0.00000000E+00
  0.00000000E+00  0.00000000E+00  0.00000000E+00
  0.00000000E+00  0.00000000E+00  0.00000000E+00
  0.00000000E+00  0.00000000E+00  0.00000000E+00
  0.00000000E+00  0.00000000E+00  0.00000000E+00
  0.00000000E+00  0.00000000E+00  0.00000000E+00
  0.00000000E+00  0.00000000E+00  0.00000000E+00
