#2 (P -1)                               
   4.81335000088901     
     0.9979750635866502   -0.0003874627767539    0.0002355942024180
    -0.1732775536339878    1.0274870723452267    0.0000750658787949
    -0.0115443034063267   -0.0300807143432285    1.7089677019706562
   Co   Fe   Ta
     2    12     2
Direct
  0.3729529982856899  0.3196212616966747  0.1167368614129730
  0.6270470017143102  0.6803787383033254  0.8832631385870270
  0.3760703452376564  0.8142559716995965  0.1228067597871017
  0.6239296547623436  0.1857440283004035  0.8771932402128982
  0.8803646422759330  0.5652948386660001  0.1233673451740648
  0.1196353577240669  0.4347051613339999  0.8766326548259351
  0.1367295061928674  0.4478026487289602  0.3717059434401597
  0.8632704938071326  0.5521973512710399  0.6282940565598403
  0.3664399944467996  0.3029872487589456  0.6318090352544637
  0.6335600055532004  0.6970127512410543  0.3681909647455363
  0.8809858297239679  0.0604614459378197  0.6305307983436157
  0.1190141702760321  0.9395385540621802  0.3694692016563842
  0.8821157222430823  0.0637707225241547  0.1183967300683062
  0.1178842777569176  0.9362292774758453  0.8816032699316937
  0.6291269382409120  0.1980124286682055  0.3718171207010512
  0.3708730617590880  0.8019875713317944  0.6281828792989489
 
  0.00000000E+00  0.00000000E+00  0.00000000E+00
  0.00000000E+00  0.00000000E+00  0.00000000E+00
  0.00000000E+00  0.00000000E+00  0.00000000E+00
  0.00000000E+00  0.00000000E+00  0.00000000E+00
  0.00000000E+00  0.00000000E+00  0.00000000E+00
  0.00000000E+00  0.00000000E+00  0.00000000E+00
  0.00000000E+00  0.00000000E+00  0.00000000E+00
  0.00000000E+00  0.00000000E+00  0.00000000E+00
  0.00000000E+00  0.00000000E+00  0.00000000E+00
  0.00000000E+00  0.00000000E+00  0.00000000E+00
  0.00000000E+00  0.00000000E+00  0.00000000E+00
  0.00000000E+00  0.00000000E+00  0.00000000E+00
  0.00000000E+00  0.00000000E+00  0.00000000E+00
  0.00000000E+00  0.00000000E+00  0.00000000E+00
  0.00000000E+00  0.00000000E+00  0.00000000E+00
  0.00000000E+00  0.00000000E+00  0.00000000E+00
