#5 (C 2) [unique axis c] cell choice 1  
   5.03827000397405     
     0.3357832626697608    0.0000000000000000   -0.9387907194107786
    -0.4991850959905724    1.6257635366860663   -0.0000406655346994
     0.4991850959905724    1.6257635366860663    0.0000406655346994
   Co   Fe   Ta
     2    12     2
Direct
  0.0000000000000000  0.7525540137494574  0.7525540137494574
  0.0000000000000000  0.9999417895038712  0.9999417895038712
  0.5000000000000000  0.4992132384648690  0.4992132384648690
  0.2573235407081336  0.3807836024112394  0.8663156788507460
  0.7426764592918664  0.8663156788507460  0.3807836024112394
  0.2431986415397148  0.8703098290117516  0.3850035294444922
  0.7568013584602852  0.3850035294444922  0.8703098290117516
  0.7498928993465146  0.1258257857297284  0.6253991171449340
  0.2501071006534854  0.6253991171449340  0.1258257857297284
  0.2509542981777395  0.1263579992643341  0.6246725011171571
  0.7490457018222605  0.6246725011171571  0.1263579992643341
  0.5000000000000000  0.7504661106382278  0.7504661106382278
  0.0000000000000000  0.5008292533542414  0.5008292533542414
  0.5000000000000000  0.2506859509187135  0.2506859509187135
  0.0000000000000000  0.2497854090570040  0.2497854090570040
  0.5000000000000000  0.0012161913392481  0.0012161913392481
 
  0.00000000E+00  0.00000000E+00  0.00000000E+00
  0.00000000E+00  0.00000000E+00  0.00000000E+00
  0.00000000E+00  0.00000000E+00  0.00000000E+00
  0.00000000E+00  0.00000000E+00  0.00000000E+00
  0.00000000E+00  0.00000000E+00  0.00000000E+00
  0.00000000E+00  0.00000000E+00  0.00000000E+00
  0.00000000E+00  0.00000000E+00  0.00000000E+00
  0.00000000E+00  0.00000000E+00  0.00000000E+00
  0.00000000E+00  0.00000000E+00  0.00000000E+00
  0.00000000E+00  0.00000000E+00  0.00000000E+00
  0.00000000E+00  0.00000000E+00  0.00000000E+00
  0.00000000E+00  0.00000000E+00  0.00000000E+00
  0.00000000E+00  0.00000000E+00  0.00000000E+00
  0.00000000E+00  0.00000000E+00  0.00000000E+00
  0.00000000E+00  0.00000000E+00  0.00000000E+00
  0.00000000E+00  0.00000000E+00  0.00000000E+00
