#2 (P -1)                               
   4.82058000256258     
     0.9993905905105431    0.0001995305967333    0.0009737287976245
    -0.3593204210739787    1.1415933222270236   -0.0002648263572641
    -0.0970940129964096   -0.3335056231069675    1.5175660238345925
   Co   Fe   Ta
     2    12     2
Direct
  0.3180042673484925  0.0983808281391459  0.0677893048773382
  0.6819957326515074  0.9016191718608542  0.9322106951226619
  0.3244296964772257  0.5971280681786625  0.0651374174772513
  0.6755703035227745  0.4028719318213375  0.9348625825227488
  0.4414215688615764  0.5217975540963984  0.6800542869819792
  0.5585784311384236  0.4782024459036016  0.3199457130180207
  0.8084858377542642  0.8484926505727323  0.5609858133628038
  0.1915141622457358  0.1515073494272678  0.4390141866371962
  0.8101277578748844  0.3348901885946348  0.5581597971292591
  0.1898722421251156  0.6651098114053654  0.4418402028707409
  0.4452529927504782  0.0377321293997605  0.6865091200009520
  0.5547470072495219  0.9622678706002395  0.3134908799990480
  0.9362110583729546  0.7804491211066176  0.1900881937854743
  0.0637889416270454  0.2195508788933825  0.8099118062145256
  0.0650619069708191  0.7187635372549132  0.8125116517477772
  0.9349380930291807  0.2812364627450869  0.1874883482522228
 
  0.00000000E+00  0.00000000E+00  0.00000000E+00
  0.00000000E+00  0.00000000E+00  0.00000000E+00
  0.00000000E+00  0.00000000E+00  0.00000000E+00
  0.00000000E+00  0.00000000E+00  0.00000000E+00
  0.00000000E+00  0.00000000E+00  0.00000000E+00
  0.00000000E+00  0.00000000E+00  0.00000000E+00
  0.00000000E+00  0.00000000E+00  0.00000000E+00
  0.00000000E+00  0.00000000E+00  0.00000000E+00
  0.00000000E+00  0.00000000E+00  0.00000000E+00
  0.00000000E+00  0.00000000E+00  0.00000000E+00
  0.00000000E+00  0.00000000E+00  0.00000000E+00
  0.00000000E+00  0.00000000E+00  0.00000000E+00
  0.00000000E+00  0.00000000E+00  0.00000000E+00
  0.00000000E+00  0.00000000E+00  0.00000000E+00
  0.00000000E+00  0.00000000E+00  0.00000000E+00
  0.00000000E+00  0.00000000E+00  0.00000000E+00
