#6 (P m) [unique axis c]                
   4.83523000405699     
    -0.1874751972345953    0.0000000000000000    1.0245613809588516
     0.9981569758398458    0.0000000000000000    0.0004474687120963
     0.0000000000000000    1.6810894959766141    0.0000000000000000
   Co   Fe   Ta
     2    12     2
Direct
  0.7569091946583770  0.5049125346003198  0.5000000000000000
  0.9999153415232068  0.9998244158867398  0.0000000000000000
  0.6343195041310098  0.7400674023733667  0.2498347699427144
  0.6343195041310098  0.7400674023733667  0.7501652300572856
  0.3660234624501976  0.2590971965798519  0.2496628610258801
  0.3660234624501976  0.2590971965798519  0.7503371389741199
  0.8761416805271393  0.2526749951172642  0.7498245619446174
  0.8761416805271393  0.2526749951172642  0.2501754380553826
  0.2427370723930612  0.4926442966847157  0.5000000000000000
  0.0008353488967948  0.9995750905009384  0.5000000000000000
  0.1244734608887665  0.7467896649864236  0.2503206339195862
  0.1244734608887665  0.7467896649864236  0.7496793660804137
  0.2440160426110960  0.4950393005738375 -0.0000000000000000
  0.7566411143815815  0.5050549889080356  0.0000000000000000
  0.5003810121128712  0.9994373215433825  0.5000000000000000
  0.4994386574287682  0.0001035331882130  0.0000000000000000
 
  0.00000000E+00  0.00000000E+00  0.00000000E+00
  0.00000000E+00  0.00000000E+00  0.00000000E+00
  0.00000000E+00  0.00000000E+00  0.00000000E+00
  0.00000000E+00  0.00000000E+00  0.00000000E+00
  0.00000000E+00  0.00000000E+00  0.00000000E+00
  0.00000000E+00  0.00000000E+00  0.00000000E+00
  0.00000000E+00  0.00000000E+00  0.00000000E+00
  0.00000000E+00  0.00000000E+00  0.00000000E+00
  0.00000000E+00  0.00000000E+00  0.00000000E+00
  0.00000000E+00  0.00000000E+00  0.00000000E+00
  0.00000000E+00  0.00000000E+00  0.00000000E+00
  0.00000000E+00  0.00000000E+00  0.00000000E+00
  0.00000000E+00  0.00000000E+00  0.00000000E+00
  0.00000000E+00  0.00000000E+00  0.00000000E+00
  0.00000000E+00  0.00000000E+00  0.00000000E+00
  0.00000000E+00  0.00000000E+00  0.00000000E+00
