#8 (C m) [unique axis c] cell choice 1  
   11.9641399920210     
     0.2920390034279167    0.0000000000000000   -0.6642618391054653
    -0.4988742980098730    0.1709622408527963   -0.0002989608459613
     0.4988742980098730    0.1709622408527963    0.0002989608459613
   Co   Fe   Ta
     2    12     2
Direct
  0.5564437953409958  0.3123932301952022  0.6876067698047981
  0.9999550499347097  0.9995872060926875  0.0004127939073126
  0.8107759926995807  0.5706985103413890  0.4293014896586111
  0.0616821208193513  0.8201185094084350  0.1798814905915649
  0.2555007694574895  0.2599870263767871  0.7400129736232127
  0.4971858363116552  0.5056655077608847  0.4943344922391151
  0.9360912638437513  0.1956902072758366  0.8043097927241633
  0.3140804195559958  0.0664268149560148  0.9335731850439852
  0.1877837978511593  0.4395940529935888  0.5604059470064112
  0.8735086569979488  0.3749636702869829  0.6250363297130174
  0.4414699275951870  0.6907531677094267  0.3092468322905731
  0.3688693917397729  0.8806483794228913  0.1193516205771087
  0.6230098015260910  0.1319625973548004  0.8680374026451996
  0.7497290647408288  0.7516423845699134  0.2483576154300866
  0.1245136037229055  0.6291419822004786  0.3708580177995215
  0.6857505078625861  0.9422667530546728  0.0577332469453272
 
  0.00000000E+00  0.00000000E+00  0.00000000E+00
  0.00000000E+00  0.00000000E+00  0.00000000E+00
  0.00000000E+00  0.00000000E+00  0.00000000E+00
  0.00000000E+00  0.00000000E+00  0.00000000E+00
  0.00000000E+00  0.00000000E+00  0.00000000E+00
  0.00000000E+00  0.00000000E+00  0.00000000E+00
  0.00000000E+00  0.00000000E+00  0.00000000E+00
  0.00000000E+00  0.00000000E+00  0.00000000E+00
  0.00000000E+00  0.00000000E+00  0.00000000E+00
  0.00000000E+00  0.00000000E+00  0.00000000E+00
  0.00000000E+00  0.00000000E+00  0.00000000E+00
  0.00000000E+00  0.00000000E+00  0.00000000E+00
  0.00000000E+00  0.00000000E+00  0.00000000E+00
  0.00000000E+00  0.00000000E+00  0.00000000E+00
  0.00000000E+00  0.00000000E+00  0.00000000E+00
  0.00000000E+00  0.00000000E+00  0.00000000E+00
