#12-C12/m1                              
   1.00000000050713     
    14.4399654273197076    0.0000000000000000    0.0061227622660009
     0.0000000000000000    2.8739286251467040    0.0000000000000000
    -1.0368514596923799    0.0000000000000000    5.3670113238668913
   Fe   Si
    16     4
Direct
  0.5002125698223310  0.0000000000000000  0.2369111612264945
  0.4997874301776690  0.0000000000000000  0.7630888387735055
  0.0002125698223310  0.5000000000000000  0.2369111612264945
  0.9997874301776690  0.5000000000000000  0.7630888387735055
  0.7011719029731580  0.0000000000000000  0.3509971425960146
  0.2988280970268420  0.0000000000000000  0.6490028574039854
  0.2011719029731580  0.5000000000000000  0.3509971425960146
  0.7988280970268420  0.5000000000000000  0.6490028574039854
  0.7003891557850395  0.0000000000000000  0.8500340662463159
  0.2996108442149605  0.0000000000000000  0.1499659337536841
  0.2003891557850395  0.5000000000000000  0.8500340662463159
  0.7996108442149605  0.5000000000000000  0.1499659337536841
  0.0976864911559261  0.0000000000000000  0.5490970689760175
  0.9023135088440739  0.0000000000000000  0.4509029310239825
  0.5976864911559261  0.5000000000000000  0.5490970689760175
  0.4023135088440739  0.5000000000000000  0.4509029310239825
  0.8957682012160078  0.0000000000000000  0.9473792431218371
  0.1042317987839922  0.0000000000000000  0.0526207568781629
  0.3957682012160078  0.5000000000000000  0.9473792431218371
  0.6042317987839922  0.5000000000000000  0.0526207568781629
 
  0.00000000E+00  0.00000000E+00  0.00000000E+00
  0.00000000E+00  0.00000000E+00  0.00000000E+00
  0.00000000E+00  0.00000000E+00  0.00000000E+00
  0.00000000E+00  0.00000000E+00  0.00000000E+00
  0.00000000E+00  0.00000000E+00  0.00000000E+00
  0.00000000E+00  0.00000000E+00  0.00000000E+00
  0.00000000E+00  0.00000000E+00  0.00000000E+00
  0.00000000E+00  0.00000000E+00  0.00000000E+00
  0.00000000E+00  0.00000000E+00  0.00000000E+00
  0.00000000E+00  0.00000000E+00  0.00000000E+00
  0.00000000E+00  0.00000000E+00  0.00000000E+00
  0.00000000E+00  0.00000000E+00  0.00000000E+00
  0.00000000E+00  0.00000000E+00  0.00000000E+00
  0.00000000E+00  0.00000000E+00  0.00000000E+00
  0.00000000E+00  0.00000000E+00  0.00000000E+00
  0.00000000E+00  0.00000000E+00  0.00000000E+00
  0.00000000E+00  0.00000000E+00  0.00000000E+00
  0.00000000E+00  0.00000000E+00  0.00000000E+00
  0.00000000E+00  0.00000000E+00  0.00000000E+00
  0.00000000E+00  0.00000000E+00  0.00000000E+00
