#87-I4/m                                
  0.999999999084582     
     6.1722684067024352    0.0000000019047375    0.0000000000000000
    -0.0000000019047375    6.1722684067024352    0.0000000000000000
     0.0000000000000000    0.0000000000000000    2.9392564727879513
   Fe   Si
     8     2
Direct
  0.3989635324063698  0.1992942858095077  0.0000000000000000
  0.6010364675936302  0.8007057141904923  0.0000000000000000
  0.8007057141904923  0.3989635324063698  0.0000000000000000
  0.1992942858095077  0.6010364675936302  0.0000000000000000
  0.8989635324063698  0.6992942858095077  0.5000000000000000
  0.1010364675936302  0.3007057141904923  0.5000000000000000
  0.3007057141904923  0.8989635324063698  0.5000000000000000
  0.6992942858095077  0.1010364675936302  0.5000000000000000
  0.0000000000000000  0.0000000000000000  0.0000000000000000
  0.5000000000000000  0.5000000000000000  0.5000000000000000
 
  0.00000000E+00  0.00000000E+00  0.00000000E+00
  0.00000000E+00  0.00000000E+00  0.00000000E+00
  0.00000000E+00  0.00000000E+00  0.00000000E+00
  0.00000000E+00  0.00000000E+00  0.00000000E+00
  0.00000000E+00  0.00000000E+00  0.00000000E+00
  0.00000000E+00  0.00000000E+00  0.00000000E+00
  0.00000000E+00  0.00000000E+00  0.00000000E+00
  0.00000000E+00  0.00000000E+00  0.00000000E+00
  0.00000000E+00  0.00000000E+00  0.00000000E+00
  0.00000000E+00  0.00000000E+00  0.00000000E+00
