#12-C12/m1                              
  0.999999999948849     
    11.6889650402969796    0.0000000000000000   -0.0189200085603415
     0.0000000000000000    3.9417562280507012    0.0000000000000000
    -0.5026900600539312    0.0000000000000000    4.8340687808184963
   Fe   Si
    16     4
Direct
  0.0000000000000000  0.0000000000000000  0.0000000000000000
  0.5000000000000000  0.5000000000000000  0.0000000000000000
  0.7979170929560766  0.0000000000000000  0.5944298365742000
  0.2020829070439234  0.0000000000000000  0.4055701634258000
  0.2979170929560766  0.5000000000000000  0.5944298365742000
  0.7020829070439234  0.5000000000000000  0.4055701634258000
  0.8015943115223791  0.0000000000000000  0.0941608276649291
  0.1984056884776209  0.0000000000000000  0.9058391723350709
  0.3015943115223791  0.5000000000000000  0.0941608276649291
  0.6984056884776209  0.5000000000000000  0.9058391723350709
  0.4033741912999531  0.0000000000000000  0.2900653597257161
  0.5966258087000469  0.0000000000000000  0.7099346402742839
  0.9033741912999531  0.5000000000000000  0.2900653597257161
  0.0966258087000469  0.5000000000000000  0.7099346402742839
  0.0000000000000000  0.0000000000000000  0.5000000000000000
  0.5000000000000000  0.5000000000000000  0.5000000000000000
  0.6045243543510708  0.0000000000000000  0.2120257466908910
  0.3954756456489292  0.0000000000000000  0.7879742533091090
  0.1045243543510708  0.5000000000000000  0.2120257466908910
  0.8954756456489292  0.5000000000000000  0.7879742533091090
 
  0.00000000E+00  0.00000000E+00  0.00000000E+00
  0.00000000E+00  0.00000000E+00  0.00000000E+00
  0.00000000E+00  0.00000000E+00  0.00000000E+00
  0.00000000E+00  0.00000000E+00  0.00000000E+00
  0.00000000E+00  0.00000000E+00  0.00000000E+00
  0.00000000E+00  0.00000000E+00  0.00000000E+00
  0.00000000E+00  0.00000000E+00  0.00000000E+00
  0.00000000E+00  0.00000000E+00  0.00000000E+00
  0.00000000E+00  0.00000000E+00  0.00000000E+00
  0.00000000E+00  0.00000000E+00  0.00000000E+00
  0.00000000E+00  0.00000000E+00  0.00000000E+00
  0.00000000E+00  0.00000000E+00  0.00000000E+00
  0.00000000E+00  0.00000000E+00  0.00000000E+00
  0.00000000E+00  0.00000000E+00  0.00000000E+00
  0.00000000E+00  0.00000000E+00  0.00000000E+00
  0.00000000E+00  0.00000000E+00  0.00000000E+00
  0.00000000E+00  0.00000000E+00  0.00000000E+00
  0.00000000E+00  0.00000000E+00  0.00000000E+00
  0.00000000E+00  0.00000000E+00  0.00000000E+00
  0.00000000E+00  0.00000000E+00  0.00000000E+00
