#65-C2/m2/m2/m                          
  0.999999999512990     
    19.7665800449326206    0.0000000000000000    0.0000000000000000
     0.0000000000000000    2.8126473672914805    0.0000000000000000
     0.0000000000000000    0.0000000000000000    3.9268440350988612
   Fe   Si
    16     4
Direct
  0.9014545678405028  0.0000000000000000  0.0000000000000000
  0.0985454321594972  0.0000000000000000  0.0000000000000000
  0.4014545678405028  0.5000000000000000  0.0000000000000000
  0.5985454321594972  0.5000000000000000  0.0000000000000000
  0.3011045111540227  0.0000000000000000  0.0000000000000000
  0.6988954888459773  0.0000000000000000  0.0000000000000000
  0.8011045111540227  0.5000000000000000  0.0000000000000000
  0.1988954888459773  0.5000000000000000  0.0000000000000000
  0.8006616917568223  0.0000000000000000  0.5000000000000000
  0.1993383082431777  0.0000000000000000  0.5000000000000000
  0.3006616917568223  0.5000000000000000  0.5000000000000000
  0.6993383082431777  0.5000000000000000  0.5000000000000000
  0.0000000000000000  0.0000000000000000  0.5000000000000000
  0.5000000000000000  0.5000000000000000  0.5000000000000000
  0.5000000000000000  0.0000000000000000  0.0000000000000000
  0.0000000000000000  0.5000000000000000  0.0000000000000000
  0.4012794079380555  0.0000000000000000  0.5000000000000000
  0.5987205920619445  0.0000000000000000  0.5000000000000000
  0.9012794079380555  0.5000000000000000  0.5000000000000000
  0.0987205920619445  0.5000000000000000  0.5000000000000000
 
  0.00000000E+00  0.00000000E+00  0.00000000E+00
  0.00000000E+00  0.00000000E+00  0.00000000E+00
  0.00000000E+00  0.00000000E+00  0.00000000E+00
  0.00000000E+00  0.00000000E+00  0.00000000E+00
  0.00000000E+00  0.00000000E+00  0.00000000E+00
  0.00000000E+00  0.00000000E+00  0.00000000E+00
  0.00000000E+00  0.00000000E+00  0.00000000E+00
  0.00000000E+00  0.00000000E+00  0.00000000E+00
  0.00000000E+00  0.00000000E+00  0.00000000E+00
  0.00000000E+00  0.00000000E+00  0.00000000E+00
  0.00000000E+00  0.00000000E+00  0.00000000E+00
  0.00000000E+00  0.00000000E+00  0.00000000E+00
  0.00000000E+00  0.00000000E+00  0.00000000E+00
  0.00000000E+00  0.00000000E+00  0.00000000E+00
  0.00000000E+00  0.00000000E+00  0.00000000E+00
  0.00000000E+00  0.00000000E+00  0.00000000E+00
  0.00000000E+00  0.00000000E+00  0.00000000E+00
  0.00000000E+00  0.00000000E+00  0.00000000E+00
  0.00000000E+00  0.00000000E+00  0.00000000E+00
  0.00000000E+00  0.00000000E+00  0.00000000E+00
