#2-P-1                                  
  0.999999998692374     
     4.6383182576152047    0.0004422215410192   -0.0080694348447246
     2.2006357485553054    4.2196154410219160    0.0036928200448146
     1.2921454894342148    1.7396791948775403    5.7788269603375682
   Fe   Si
     8     2
Direct
  0.2487182148915963  0.2542268268230288  0.9927926749079816
  0.7512817851084037  0.7457731731769712  0.0072073250920184
  0.8528586593712220  0.2377202033329766  0.7934291076362427
  0.1471413406287780  0.7622797966670234  0.2065708923637573
  0.6451832936582633  0.2520923551398369  0.1990145461550767
  0.3548167063417367  0.7479076448601631  0.8009854538449233
  0.5503922735238618  0.7517881366221033  0.4033258687922086
  0.4496077264761382  0.2482118633778967  0.5966741312077914
  0.0543273227840828  0.2656067945509903  0.3818414419175937
  0.9456726772159172  0.7343932054490097  0.6181585580824063
 
  0.00000000E+00  0.00000000E+00  0.00000000E+00
  0.00000000E+00  0.00000000E+00  0.00000000E+00
  0.00000000E+00  0.00000000E+00  0.00000000E+00
  0.00000000E+00  0.00000000E+00  0.00000000E+00
  0.00000000E+00  0.00000000E+00  0.00000000E+00
  0.00000000E+00  0.00000000E+00  0.00000000E+00
  0.00000000E+00  0.00000000E+00  0.00000000E+00
  0.00000000E+00  0.00000000E+00  0.00000000E+00
  0.00000000E+00  0.00000000E+00  0.00000000E+00
  0.00000000E+00  0.00000000E+00  0.00000000E+00
