#65-C2/m2/m2/m                          
   1.00000000016215     
    19.8694909318973494    0.0000000000000000    0.0000000000000000
     0.0000000000000000    3.9262605745934214    0.0000000000000000
     0.0000000000000000    0.0000000000000000    2.8117289829701431
   Fe   Si
    16     4
Direct
  0.3980416127680968  0.0000000000000000  0.5000000000000000
  0.6019583872319032  0.0000000000000000  0.5000000000000000
  0.8980416127680968  0.5000000000000000  0.5000000000000000
  0.1019583872319032  0.5000000000000000  0.5000000000000000
  0.2037110880293369  0.0000000000000000  0.5000000000000000
  0.7962889119706631  0.0000000000000000  0.5000000000000000
  0.7037110880293369  0.5000000000000000  0.5000000000000000
  0.2962889119706631  0.5000000000000000  0.5000000000000000
  0.5000000000000000  0.0000000000000000  0.0000000000000000
  0.0000000000000000  0.5000000000000000  0.0000000000000000
  0.1017700660670826  0.0000000000000000  0.0000000000000000
  0.8982299339329174  0.0000000000000000  0.0000000000000000
  0.6017700660670826  0.5000000000000000  0.0000000000000000
  0.3982299339329174  0.5000000000000000  0.0000000000000000
  0.0000000000000000  0.0000000000000000  0.5000000000000000
  0.5000000000000000  0.5000000000000000  0.5000000000000000
  0.3014048203153834  0.0000000000000000  0.0000000000000000
  0.6985951796846166  0.0000000000000000  0.0000000000000000
  0.8014048203153834  0.5000000000000000  0.0000000000000000
  0.1985951796846166  0.5000000000000000  0.0000000000000000
 
  0.00000000E+00  0.00000000E+00  0.00000000E+00
  0.00000000E+00  0.00000000E+00  0.00000000E+00
  0.00000000E+00  0.00000000E+00  0.00000000E+00
  0.00000000E+00  0.00000000E+00  0.00000000E+00
  0.00000000E+00  0.00000000E+00  0.00000000E+00
  0.00000000E+00  0.00000000E+00  0.00000000E+00
  0.00000000E+00  0.00000000E+00  0.00000000E+00
  0.00000000E+00  0.00000000E+00  0.00000000E+00
  0.00000000E+00  0.00000000E+00  0.00000000E+00
  0.00000000E+00  0.00000000E+00  0.00000000E+00
  0.00000000E+00  0.00000000E+00  0.00000000E+00
  0.00000000E+00  0.00000000E+00  0.00000000E+00
  0.00000000E+00  0.00000000E+00  0.00000000E+00
  0.00000000E+00  0.00000000E+00  0.00000000E+00
  0.00000000E+00  0.00000000E+00  0.00000000E+00
  0.00000000E+00  0.00000000E+00  0.00000000E+00
  0.00000000E+00  0.00000000E+00  0.00000000E+00
  0.00000000E+00  0.00000000E+00  0.00000000E+00
  0.00000000E+00  0.00000000E+00  0.00000000E+00
  0.00000000E+00  0.00000000E+00  0.00000000E+00
