#63-C2/m2/c21/m                         
   1.00000000066430     
     2.8564578528933624    0.0000000000000000    0.0000000000000000
     0.0000000000000000   19.7407846559671150    0.0000000000000000
     0.0000000000000000    0.0000000000000000    3.9070569284422039
   Fe   Si
    16     4
Direct
  0.0000000000000000  0.0508307591591048  0.2500000000000000
  0.0000000000000000  0.9491692408408952  0.7500000000000000
  0.5000000000000000  0.5508307591591048  0.2500000000000000
  0.5000000000000000  0.4491692408408952  0.7500000000000000
  0.0000000000000000  0.2507107670506699  0.2500000000000000
  0.0000000000000000  0.7492892329493301  0.7500000000000000
  0.5000000000000000  0.7507107670506699  0.2500000000000000
  0.5000000000000000  0.2492892329493301  0.7500000000000000
  0.0000000000000000  0.4498940476646638  0.2500000000000000
  0.0000000000000000  0.5501059523353362  0.7500000000000000
  0.5000000000000000  0.9498940476646638  0.2500000000000000
  0.5000000000000000  0.0501059523353362  0.7500000000000000
  0.0000000000000000  0.6512045885780182  0.2500000000000000
  0.0000000000000000  0.3487954114219818  0.7500000000000000
  0.5000000000000000  0.1512045885780182  0.2500000000000000
  0.5000000000000000  0.8487954114219818  0.7500000000000000
  0.0000000000000000  0.8510886954356920  0.2500000000000000
  0.0000000000000000  0.1489113045643080  0.7500000000000000
  0.5000000000000000  0.3510886954356920  0.2500000000000000
  0.5000000000000000  0.6489113045643080  0.7500000000000000
 
  0.00000000E+00  0.00000000E+00  0.00000000E+00
  0.00000000E+00  0.00000000E+00  0.00000000E+00
  0.00000000E+00  0.00000000E+00  0.00000000E+00
  0.00000000E+00  0.00000000E+00  0.00000000E+00
  0.00000000E+00  0.00000000E+00  0.00000000E+00
  0.00000000E+00  0.00000000E+00  0.00000000E+00
  0.00000000E+00  0.00000000E+00  0.00000000E+00
  0.00000000E+00  0.00000000E+00  0.00000000E+00
  0.00000000E+00  0.00000000E+00  0.00000000E+00
  0.00000000E+00  0.00000000E+00  0.00000000E+00
  0.00000000E+00  0.00000000E+00  0.00000000E+00
  0.00000000E+00  0.00000000E+00  0.00000000E+00
  0.00000000E+00  0.00000000E+00  0.00000000E+00
  0.00000000E+00  0.00000000E+00  0.00000000E+00
  0.00000000E+00  0.00000000E+00  0.00000000E+00
  0.00000000E+00  0.00000000E+00  0.00000000E+00
  0.00000000E+00  0.00000000E+00  0.00000000E+00
  0.00000000E+00  0.00000000E+00  0.00000000E+00
  0.00000000E+00  0.00000000E+00  0.00000000E+00
  0.00000000E+00  0.00000000E+00  0.00000000E+00
