#65-C2/m2/m2/m                          
   1.00000000030060     
    14.3299618306072336    0.0000000000000000    0.0000000000000000
     0.0000000000000000    3.9102419760051625    0.0000000000000000
     0.0000000000000000    0.0000000000000000    3.9114196115065707
   Fe   Si
    16     4
Direct
  0.1004556650927313  0.0000000000000000  0.5000000000000000
  0.8995443349072687  0.0000000000000000  0.5000000000000000
  0.6004556650927313  0.5000000000000000  0.5000000000000000
  0.3995443349072687  0.5000000000000000  0.5000000000000000
  0.5000000000000000  0.0000000000000000  0.5000000000000000
  0.0000000000000000  0.5000000000000000  0.5000000000000000
  0.3005622969689696  0.0000000000000000  0.5000000000000000
  0.6994377030310304  0.0000000000000000  0.5000000000000000
  0.8005622969689696  0.5000000000000000  0.5000000000000000
  0.1994377030310304  0.5000000000000000  0.5000000000000000
  0.0000000000000000  0.0000000000000000  0.0000000000000000
  0.5000000000000000  0.5000000000000000  0.0000000000000000
  0.7999721788957785  0.0000000000000000  0.0000000000000000
  0.2000278211042215  0.0000000000000000  0.0000000000000000
  0.2999721788957785  0.5000000000000000  0.0000000000000000
  0.7000278211042215  0.5000000000000000  0.0000000000000000
  0.5982896307025101  0.0000000000000000  0.0000000000000000
  0.4017103692974899  0.0000000000000000  0.0000000000000000
  0.0982896307025101  0.5000000000000000  0.0000000000000000
  0.9017103692974899  0.5000000000000000  0.0000000000000000
 
  0.00000000E+00  0.00000000E+00  0.00000000E+00
  0.00000000E+00  0.00000000E+00  0.00000000E+00
  0.00000000E+00  0.00000000E+00  0.00000000E+00
  0.00000000E+00  0.00000000E+00  0.00000000E+00
  0.00000000E+00  0.00000000E+00  0.00000000E+00
  0.00000000E+00  0.00000000E+00  0.00000000E+00
  0.00000000E+00  0.00000000E+00  0.00000000E+00
  0.00000000E+00  0.00000000E+00  0.00000000E+00
  0.00000000E+00  0.00000000E+00  0.00000000E+00
  0.00000000E+00  0.00000000E+00  0.00000000E+00
  0.00000000E+00  0.00000000E+00  0.00000000E+00
  0.00000000E+00  0.00000000E+00  0.00000000E+00
  0.00000000E+00  0.00000000E+00  0.00000000E+00
  0.00000000E+00  0.00000000E+00  0.00000000E+00
  0.00000000E+00  0.00000000E+00  0.00000000E+00
  0.00000000E+00  0.00000000E+00  0.00000000E+00
  0.00000000E+00  0.00000000E+00  0.00000000E+00
  0.00000000E+00  0.00000000E+00  0.00000000E+00
  0.00000000E+00  0.00000000E+00  0.00000000E+00
  0.00000000E+00  0.00000000E+00  0.00000000E+00
