#12-C12/m1                              
  0.999999999844320     
     8.7749123781557756    0.0000000000000000    0.0145544499000086
     0.0000000000000000    2.9016452359054887    0.0000000000000000
    -0.0116870074916465    0.0000000000000000    8.7378715616948881
   Fe   Si
    16     4
Direct
  0.6010879812974466  0.0000000000000000  0.7969549319813254
  0.3989120187025534  0.0000000000000000  0.2030450680186746
  0.1010879812974466  0.5000000000000000  0.7969549319813254
  0.8989120187025534  0.5000000000000000  0.2030450680186746
  0.0000000000000000  0.5000000000000000  0.5000000000000000
  0.5000000000000000  0.0000000000000000  0.5000000000000000
  0.2004971010201544  0.0000000000000000  0.5991240435834655
  0.7995028989798456  0.0000000000000000  0.4008759564165345
  0.7004971010201544  0.5000000000000000  0.5991240435834655
  0.2995028989798456  0.5000000000000000  0.4008759564165345
  0.0000000000000000  0.0000000000000000  0.0000000000000000
  0.5000000000000000  0.5000000000000000  0.0000000000000000
  0.7012262237678826  0.0000000000000000  0.1002150519444456
  0.2987737762321174  0.0000000000000000  0.8997849480555544
  0.2012262237678826  0.5000000000000000  0.1002150519444456
  0.7987737762321174  0.5000000000000000  0.8997849480555544
  0.9003352988031139  0.0000000000000000  0.6989513310657713
  0.0996647011968861  0.0000000000000000  0.3010486689342287
  0.4003352988031139  0.5000000000000000  0.6989513310657713
  0.5996647011968861  0.5000000000000000  0.3010486689342287
 
  0.00000000E+00  0.00000000E+00  0.00000000E+00
  0.00000000E+00  0.00000000E+00  0.00000000E+00
  0.00000000E+00  0.00000000E+00  0.00000000E+00
  0.00000000E+00  0.00000000E+00  0.00000000E+00
  0.00000000E+00  0.00000000E+00  0.00000000E+00
  0.00000000E+00  0.00000000E+00  0.00000000E+00
  0.00000000E+00  0.00000000E+00  0.00000000E+00
  0.00000000E+00  0.00000000E+00  0.00000000E+00
  0.00000000E+00  0.00000000E+00  0.00000000E+00
  0.00000000E+00  0.00000000E+00  0.00000000E+00
  0.00000000E+00  0.00000000E+00  0.00000000E+00
  0.00000000E+00  0.00000000E+00  0.00000000E+00
  0.00000000E+00  0.00000000E+00  0.00000000E+00
  0.00000000E+00  0.00000000E+00  0.00000000E+00
  0.00000000E+00  0.00000000E+00  0.00000000E+00
  0.00000000E+00  0.00000000E+00  0.00000000E+00
  0.00000000E+00  0.00000000E+00  0.00000000E+00
  0.00000000E+00  0.00000000E+00  0.00000000E+00
  0.00000000E+00  0.00000000E+00  0.00000000E+00
  0.00000000E+00  0.00000000E+00  0.00000000E+00
