#2-P-1                                  
   1.00000000119542     
     4.6683227286535667   -0.0036893511382366   -0.0017177480855607
     0.3595881647453866    4.6602226992116229   -0.0041721067734438
     1.6474065723079985    1.6475388462703517    5.1672595334632971
   Fe   Si
     8     2
Direct
  0.8963403392906031  0.8004782438797520  0.4493215278976663
  0.1036596607093969  0.1995217561202480  0.5506784721023337
  0.8973308253496626  0.8025111469007484  0.9521309845100419
  0.1026691746503374  0.1974888530992516  0.0478690154899581
  0.4989436703446870  0.0082922515775650  0.7470833115944799
  0.5010563296553130  0.9917077484224350  0.2529166884055201
  0.7001872647369396  0.3994683735470232  0.8505889733778247
  0.2998127352630604  0.6005316264529768  0.1494110266221753
  0.2839859592264418  0.6084822754851800  0.6624393591667115
  0.7160140407735582  0.3915177245148200  0.3375606408332885
 
  0.00000000E+00  0.00000000E+00  0.00000000E+00
  0.00000000E+00  0.00000000E+00  0.00000000E+00
  0.00000000E+00  0.00000000E+00  0.00000000E+00
  0.00000000E+00  0.00000000E+00  0.00000000E+00
  0.00000000E+00  0.00000000E+00  0.00000000E+00
  0.00000000E+00  0.00000000E+00  0.00000000E+00
  0.00000000E+00  0.00000000E+00  0.00000000E+00
  0.00000000E+00  0.00000000E+00  0.00000000E+00
  0.00000000E+00  0.00000000E+00  0.00000000E+00
  0.00000000E+00  0.00000000E+00  0.00000000E+00
