#166-R-32/m(hexagonalaxes)              
   1.00000000043987     
     3.9422459017259732    0.0000000000000000    0.0000000000000000
    -1.9711229508629866    3.4140850988597853    0.0000000000000000
     0.0000000000000000    0.0000000000000000   24.4311482519091356
   Fe   Si
    24     6
Direct
  0.0000000000000000  0.0000000000000000  0.8000427535373404
  0.0000000000000000  0.0000000000000000  0.1999572464626596
  0.3333299999999966  0.6666700000000034  0.4667127535373439
  0.3333299999999966  0.6666700000000034  0.8666272464626559
  0.6666700000000034  0.3333299999999966  0.1333727535373441
  0.6666700000000034  0.3333299999999966  0.5332872464626561
  0.0000000000000000  0.0000000000000000  0.5000000000000000
  0.3333299999999966  0.6666700000000034  0.1666700000000034
  0.6666700000000034  0.3333299999999966  0.8333299999999966
  0.0000000000000000  0.0000000000000000  0.3967821603114601
  0.0000000000000000  0.0000000000000000  0.6032178396885399
  0.3333299999999966  0.6666700000000034  0.0634521603114635
  0.3333299999999966  0.6666700000000034  0.2698878396885362
  0.6666700000000034  0.3333299999999966  0.7301121603114638
  0.6666700000000034  0.3333299999999966  0.9365478396885365
  0.0000000000000000  0.0000000000000000  0.0992025728237280
  0.0000000000000000  0.0000000000000000  0.9007974271762720
  0.3333299999999966  0.6666700000000034  0.7658725728237314
  0.3333299999999966  0.6666700000000034  0.5674674271762683
  0.6666700000000034  0.3333299999999966  0.4325325728237317
  0.6666700000000034  0.3333299999999966  0.2341274271762686
  0.0000000000000000  0.0000000000000000  0.0000000000000000
  0.3333299999999966  0.6666700000000034  0.6666700000000034
  0.6666700000000034  0.3333299999999966  0.3333299999999966
  0.0000000000000000  0.0000000000000000  0.7021334580450329
  0.0000000000000000  0.0000000000000000  0.2978665419549671
  0.3333299999999966  0.6666700000000034  0.3688034580450292
  0.3333299999999966  0.6666700000000034  0.9645365419549705
  0.6666700000000034  0.3333299999999966  0.0354634580450295
  0.6666700000000034  0.3333299999999966  0.6311965419549708
 
  0.00000000E+00  0.00000000E+00  0.00000000E+00
  0.00000000E+00  0.00000000E+00  0.00000000E+00
  0.00000000E+00  0.00000000E+00  0.00000000E+00
  0.00000000E+00  0.00000000E+00  0.00000000E+00
  0.00000000E+00  0.00000000E+00  0.00000000E+00
  0.00000000E+00  0.00000000E+00  0.00000000E+00
  0.00000000E+00  0.00000000E+00  0.00000000E+00
  0.00000000E+00  0.00000000E+00  0.00000000E+00
  0.00000000E+00  0.00000000E+00  0.00000000E+00
  0.00000000E+00  0.00000000E+00  0.00000000E+00
  0.00000000E+00  0.00000000E+00  0.00000000E+00
  0.00000000E+00  0.00000000E+00  0.00000000E+00
  0.00000000E+00  0.00000000E+00  0.00000000E+00
  0.00000000E+00  0.00000000E+00  0.00000000E+00
  0.00000000E+00  0.00000000E+00  0.00000000E+00
  0.00000000E+00  0.00000000E+00  0.00000000E+00
  0.00000000E+00  0.00000000E+00  0.00000000E+00
  0.00000000E+00  0.00000000E+00  0.00000000E+00
  0.00000000E+00  0.00000000E+00  0.00000000E+00
  0.00000000E+00  0.00000000E+00  0.00000000E+00
  0.00000000E+00  0.00000000E+00  0.00000000E+00
  0.00000000E+00  0.00000000E+00  0.00000000E+00
  0.00000000E+00  0.00000000E+00  0.00000000E+00
  0.00000000E+00  0.00000000E+00  0.00000000E+00
  0.00000000E+00  0.00000000E+00  0.00000000E+00
  0.00000000E+00  0.00000000E+00  0.00000000E+00
  0.00000000E+00  0.00000000E+00  0.00000000E+00
  0.00000000E+00  0.00000000E+00  0.00000000E+00
  0.00000000E+00  0.00000000E+00  0.00000000E+00
  0.00000000E+00  0.00000000E+00  0.00000000E+00
