#2-P-1                                  
   1.00000000071451     
     4.6400944098051440    0.0121960015810560    0.0051043741436873
     2.0862117907669204    4.1691083593731486    0.0072420193372973
     1.3400826117284197    1.6582506177230449    5.7787150895022412
   Fe   Si
     8     2
Direct
  0.9472479256041879  0.7574034640411043  0.1024335773504816
  0.0527520743958121  0.2425965359588957  0.8975664226495184
  0.6544732283150978  0.2471906972320355  0.6944060325800194
  0.3455267716849022  0.7528093027679645  0.3055939674199806
  0.5582503418191749  0.7458214335456645  0.9038792683074206
  0.4417496581808251  0.2541785664543355  0.0961207316925794
  0.2506143825692320  0.2496588327261264  0.4991835587928719
  0.7493856174307680  0.7503411672738736  0.5008164412071281
  0.8420661432611141  0.2615674528166778  0.2899276216792046
  0.1579338567388859  0.7384325471833222  0.7100723783207954
 
  0.00000000E+00  0.00000000E+00  0.00000000E+00
  0.00000000E+00  0.00000000E+00  0.00000000E+00
  0.00000000E+00  0.00000000E+00  0.00000000E+00
  0.00000000E+00  0.00000000E+00  0.00000000E+00
  0.00000000E+00  0.00000000E+00  0.00000000E+00
  0.00000000E+00  0.00000000E+00  0.00000000E+00
  0.00000000E+00  0.00000000E+00  0.00000000E+00
  0.00000000E+00  0.00000000E+00  0.00000000E+00
  0.00000000E+00  0.00000000E+00  0.00000000E+00
  0.00000000E+00  0.00000000E+00  0.00000000E+00
