#166-R-32/m(hexagonalaxes)              
   1.00000000002575     
     3.9256514690482169    0.0000000000000000    0.0000000000000000
    -1.9628257345241085    3.3997138985994573    0.0000000000000000
     0.0000000000000000   -0.0000000000000001   25.1300542311610755
   Fe   Si
    24     6
Direct
  0.0000000000000000  0.0000000000000000  0.6511675326289463
  0.0000000000000000  0.0000000000000000  0.3488324673710537
  0.3333299999999966  0.6666700000000034  0.3178375326289427
  0.3333299999999966  0.6666700000000034  0.0155024673710571
  0.6666700000000034  0.3333299999999966  0.9844975326289429
  0.6666700000000034  0.3333299999999966  0.6821624673710573
  0.0000000000000000  0.0000000000000000  0.8522578500683267
  0.0000000000000000  0.0000000000000000  0.1477421499316733
  0.3333299999999966  0.6666700000000034  0.5189278500683301
  0.3333299999999966  0.6666700000000034  0.8144121499316697
  0.6666700000000034  0.3333299999999966  0.1855878500683303
  0.6666700000000034  0.3333299999999966  0.4810721499316699
  0.0000000000000000  0.0000000000000000  0.2489865355771528
  0.0000000000000000  0.0000000000000000  0.7510134644228472
  0.3333299999999966  0.6666700000000034  0.9156565355771562
  0.3333299999999966  0.6666700000000034  0.4176834644228435
  0.6666700000000034  0.3333299999999966  0.5823165355771565
  0.6666700000000034  0.3333299999999966  0.0843434644228438
  0.0000000000000000  0.0000000000000000  0.0494281418122426
  0.0000000000000000  0.0000000000000000  0.9505718581877574
  0.3333299999999966  0.6666700000000034  0.7160981418122461
  0.3333299999999966  0.6666700000000034  0.6172418581877537
  0.6666700000000034  0.3333299999999966  0.3827581418122463
  0.6666700000000034  0.3333299999999966  0.2839018581877539
  0.0000000000000000  0.0000000000000000  0.4462062095972712
  0.0000000000000000  0.0000000000000000  0.5537937904027288
  0.3333299999999966  0.6666700000000034  0.1128762095972675
  0.3333299999999966  0.6666700000000034  0.2204637904027322
  0.6666700000000034  0.3333299999999966  0.7795362095972678
  0.6666700000000034  0.3333299999999966  0.8871237904027325
 
  0.00000000E+00  0.00000000E+00  0.00000000E+00
  0.00000000E+00  0.00000000E+00  0.00000000E+00
  0.00000000E+00  0.00000000E+00  0.00000000E+00
  0.00000000E+00  0.00000000E+00  0.00000000E+00
  0.00000000E+00  0.00000000E+00  0.00000000E+00
  0.00000000E+00  0.00000000E+00  0.00000000E+00
  0.00000000E+00  0.00000000E+00  0.00000000E+00
  0.00000000E+00  0.00000000E+00  0.00000000E+00
  0.00000000E+00  0.00000000E+00  0.00000000E+00
  0.00000000E+00  0.00000000E+00  0.00000000E+00
  0.00000000E+00  0.00000000E+00  0.00000000E+00
  0.00000000E+00  0.00000000E+00  0.00000000E+00
  0.00000000E+00  0.00000000E+00  0.00000000E+00
  0.00000000E+00  0.00000000E+00  0.00000000E+00
  0.00000000E+00  0.00000000E+00  0.00000000E+00
  0.00000000E+00  0.00000000E+00  0.00000000E+00
  0.00000000E+00  0.00000000E+00  0.00000000E+00
  0.00000000E+00  0.00000000E+00  0.00000000E+00
  0.00000000E+00  0.00000000E+00  0.00000000E+00
  0.00000000E+00  0.00000000E+00  0.00000000E+00
  0.00000000E+00  0.00000000E+00  0.00000000E+00
  0.00000000E+00  0.00000000E+00  0.00000000E+00
  0.00000000E+00  0.00000000E+00  0.00000000E+00
  0.00000000E+00  0.00000000E+00  0.00000000E+00
  0.00000000E+00  0.00000000E+00  0.00000000E+00
  0.00000000E+00  0.00000000E+00  0.00000000E+00
  0.00000000E+00  0.00000000E+00  0.00000000E+00
  0.00000000E+00  0.00000000E+00  0.00000000E+00
  0.00000000E+00  0.00000000E+00  0.00000000E+00
  0.00000000E+00  0.00000000E+00  0.00000000E+00
