#12-C12/m1                              
  0.999999999848996     
     8.3769081278477078    0.0000000000000000   -0.0165464018529297
     0.0000000000000000    3.9349347187114700    0.0000000000000000
    -1.6532547649105096    0.0000000000000000    6.7778598785241799
   Fe   Si
    16     4
Direct
  0.7028252086436098  0.0000000000000000  0.9020062836716960
  0.2971747913563902  0.0000000000000000  0.0979937163283040
  0.2028252086436098  0.5000000000000000  0.9020062836716960
  0.7971747913563902  0.5000000000000000  0.0979937163283040
  0.1984944175809815  0.0000000000000000  0.3997292932269190
  0.8015055824190185  0.0000000000000000  0.6002707067730810
  0.6984944175809815  0.5000000000000000  0.3997292932269190
  0.3015055824190185  0.5000000000000000  0.6002707067730810
  0.0000000000000000  0.0000000000000000  0.0000000000000000
  0.5000000000000000  0.5000000000000000  0.0000000000000000
  0.0000000000000000  0.5000000000000000  0.5000000000000000
  0.5000000000000000  0.0000000000000000  0.5000000000000000
  0.5951470259269058  0.0000000000000000  0.2005489449531481
  0.4048529740730942  0.0000000000000000  0.7994510550468519
  0.0951470259269058  0.5000000000000000  0.2005489449531481
  0.9048529740730942  0.5000000000000000  0.7994510550468519
  0.1045624759423660  0.0000000000000000  0.7069432995772260
  0.8954375240576340  0.0000000000000000  0.2930567004227740
  0.6045624759423660  0.5000000000000000  0.7069432995772260
  0.3954375240576340  0.5000000000000000  0.2930567004227740
 
  0.00000000E+00  0.00000000E+00  0.00000000E+00
  0.00000000E+00  0.00000000E+00  0.00000000E+00
  0.00000000E+00  0.00000000E+00  0.00000000E+00
  0.00000000E+00  0.00000000E+00  0.00000000E+00
  0.00000000E+00  0.00000000E+00  0.00000000E+00
  0.00000000E+00  0.00000000E+00  0.00000000E+00
  0.00000000E+00  0.00000000E+00  0.00000000E+00
  0.00000000E+00  0.00000000E+00  0.00000000E+00
  0.00000000E+00  0.00000000E+00  0.00000000E+00
  0.00000000E+00  0.00000000E+00  0.00000000E+00
  0.00000000E+00  0.00000000E+00  0.00000000E+00
  0.00000000E+00  0.00000000E+00  0.00000000E+00
  0.00000000E+00  0.00000000E+00  0.00000000E+00
  0.00000000E+00  0.00000000E+00  0.00000000E+00
  0.00000000E+00  0.00000000E+00  0.00000000E+00
  0.00000000E+00  0.00000000E+00  0.00000000E+00
  0.00000000E+00  0.00000000E+00  0.00000000E+00
  0.00000000E+00  0.00000000E+00  0.00000000E+00
  0.00000000E+00  0.00000000E+00  0.00000000E+00
  0.00000000E+00  0.00000000E+00  0.00000000E+00
