#12-C12/m1                              
   1.00000000040778     
    11.9141649626441861    0.0000000000000000   -0.0069939120646326
     0.0000000000000000    3.9632635008834529    0.0000000000000000
    -1.3559471178855294    0.0000000000000000    4.6648717301886027
   Fe   Si
    16     4
Direct
  0.0000000000000000  0.5000000000000000  0.5000000000000000
  0.5000000000000000  0.0000000000000000  0.5000000000000000
  0.7001306748608016  0.0000000000000000  0.2985082668172794
  0.2998693251391984  0.0000000000000000  0.7014917331827206
  0.2001306748608016  0.5000000000000000  0.2985082668172794
  0.7998693251391984  0.5000000000000000  0.7014917331827206
  0.7013180087865223  0.0000000000000000  0.7987295227148437
  0.2986819912134777  0.0000000000000000  0.2012704772851563
  0.2013180087865223  0.5000000000000000  0.7987295227148437
  0.7986819912134777  0.5000000000000000  0.2012704772851563
  0.9021920685733562  0.0000000000000000  0.1100202625667634
  0.0978079314266438  0.0000000000000000  0.8899797374332366
  0.4021920685733562  0.5000000000000000  0.1100202625667634
  0.5978079314266438  0.5000000000000000  0.8899797374332366
  0.0000000000000000  0.5000000000000000  0.0000000000000000
  0.5000000000000000  0.0000000000000000  0.0000000000000000
  0.8965824207556423  0.0000000000000000  0.6057912229696854
  0.1034175792443577  0.0000000000000000  0.3942087770303146
  0.3965824207556423  0.5000000000000000  0.6057912229696854
  0.6034175792443577  0.5000000000000000  0.3942087770303146
 
  0.00000000E+00  0.00000000E+00  0.00000000E+00
  0.00000000E+00  0.00000000E+00  0.00000000E+00
  0.00000000E+00  0.00000000E+00  0.00000000E+00
  0.00000000E+00  0.00000000E+00  0.00000000E+00
  0.00000000E+00  0.00000000E+00  0.00000000E+00
  0.00000000E+00  0.00000000E+00  0.00000000E+00
  0.00000000E+00  0.00000000E+00  0.00000000E+00
  0.00000000E+00  0.00000000E+00  0.00000000E+00
  0.00000000E+00  0.00000000E+00  0.00000000E+00
  0.00000000E+00  0.00000000E+00  0.00000000E+00
  0.00000000E+00  0.00000000E+00  0.00000000E+00
  0.00000000E+00  0.00000000E+00  0.00000000E+00
  0.00000000E+00  0.00000000E+00  0.00000000E+00
  0.00000000E+00  0.00000000E+00  0.00000000E+00
  0.00000000E+00  0.00000000E+00  0.00000000E+00
  0.00000000E+00  0.00000000E+00  0.00000000E+00
  0.00000000E+00  0.00000000E+00  0.00000000E+00
  0.00000000E+00  0.00000000E+00  0.00000000E+00
  0.00000000E+00  0.00000000E+00  0.00000000E+00
  0.00000000E+00  0.00000000E+00  0.00000000E+00
