#11-P121/m1                             
   1.00000000046420     
     5.3082056407415168    0.0000000000000000   -0.0281210256546004
     0.0000000000000000    4.0640230547571949    0.0000000000000000
    -2.3213572366356212    0.0000000000000000    5.2700777362202604
   Fe   Sc
     6     2
Direct
  0.1725006517793233  0.2500000000000000  0.8474930609765536
  0.8274993482206767  0.7500000000000000  0.1525069390234464
  0.1174257153399481  0.2500000000000000  0.2263788815756556
  0.8825742846600519  0.7500000000000000  0.7736211184243444
  0.6578446405118257  0.2500000000000000  0.8883665598538570
  0.3421553594881743  0.7500000000000000  0.1116334401461430
  0.6920996624241624  0.2500000000000000  0.4024232836307462
  0.3079003375758376  0.7500000000000000  0.5975767163692538
 
  0.00000000E+00  0.00000000E+00  0.00000000E+00
  0.00000000E+00  0.00000000E+00  0.00000000E+00
  0.00000000E+00  0.00000000E+00  0.00000000E+00
  0.00000000E+00  0.00000000E+00  0.00000000E+00
  0.00000000E+00  0.00000000E+00  0.00000000E+00
  0.00000000E+00  0.00000000E+00  0.00000000E+00
  0.00000000E+00  0.00000000E+00  0.00000000E+00
  0.00000000E+00  0.00000000E+00  0.00000000E+00
