#160-R3m(hexagonalaxes)                 
   1.00000000020069     
     4.7254850113726770    0.0000000000000000    0.0000000000000000
    -2.3627425056863385    4.0923900650513350    0.0000000000000000
     0.0000000000000000    0.0000000000000000   17.3097952529960466
   Fe   Sc
    18     6
Direct
  0.0000000000000000  0.0000000000000000  0.0850244632664001
  0.3333299999999966  0.6666700000000034  0.7516944632664035
  0.6666700000000034  0.3333299999999966  0.4183544632664038
  0.0000000000000000  0.0000000000000000  0.5191350253093816
  0.3333299999999966  0.6666700000000034  0.1858050253093850
  0.6666700000000034  0.3333299999999966  0.8524650253093853
  0.4984241160046494  0.5015758839953506  0.3069681319507680
  0.4984241160046494  0.9968482320093059  0.3069681319507680
  0.0031517679906941  0.5015758839953506  0.3069681319507680
  0.8317541160046460  0.1682458839953540  0.9736381319507714
  0.8317541160046460  0.6635182320093023  0.9736381319507714
  0.3364817679906977  0.1682458839953540  0.9736381319507714
  0.1650941160046457  0.8349058839953543  0.6402981319507646
  0.1650941160046457  0.3301782320093025  0.6402981319507646
  0.6698217679906975  0.8349058839953543  0.6402981319507646
  0.0000000000000000  0.0000000000000000  0.3821476847156831
  0.3333299999999966  0.6666700000000034  0.0488176847156865
  0.6666700000000034  0.3333299999999966  0.7154776847156867
  0.0000000000000000  0.0000000000000000  0.2264830432494520
  0.3333299999999966  0.6666700000000034  0.8931530432494483
  0.6666700000000034  0.3333299999999966  0.5598130432494486
  0.0000000000000000  0.0000000000000000  0.7955853876067920
  0.3333299999999966  0.6666700000000034  0.4622553876067883
  0.6666700000000034  0.3333299999999966  0.1289153876067886
 
  0.00000000E+00  0.00000000E+00  0.00000000E+00
  0.00000000E+00  0.00000000E+00  0.00000000E+00
  0.00000000E+00  0.00000000E+00  0.00000000E+00
  0.00000000E+00  0.00000000E+00  0.00000000E+00
  0.00000000E+00  0.00000000E+00  0.00000000E+00
  0.00000000E+00  0.00000000E+00  0.00000000E+00
  0.00000000E+00  0.00000000E+00  0.00000000E+00
  0.00000000E+00  0.00000000E+00  0.00000000E+00
  0.00000000E+00  0.00000000E+00  0.00000000E+00
  0.00000000E+00  0.00000000E+00  0.00000000E+00
  0.00000000E+00  0.00000000E+00  0.00000000E+00
  0.00000000E+00  0.00000000E+00  0.00000000E+00
  0.00000000E+00  0.00000000E+00  0.00000000E+00
  0.00000000E+00  0.00000000E+00  0.00000000E+00
  0.00000000E+00  0.00000000E+00  0.00000000E+00
  0.00000000E+00  0.00000000E+00  0.00000000E+00
  0.00000000E+00  0.00000000E+00  0.00000000E+00
  0.00000000E+00  0.00000000E+00  0.00000000E+00
  0.00000000E+00  0.00000000E+00  0.00000000E+00
  0.00000000E+00  0.00000000E+00  0.00000000E+00
  0.00000000E+00  0.00000000E+00  0.00000000E+00
  0.00000000E+00  0.00000000E+00  0.00000000E+00
  0.00000000E+00  0.00000000E+00  0.00000000E+00
  0.00000000E+00  0.00000000E+00  0.00000000E+00
