#166-R-32/m(hexagonalaxes)              
  0.999999999563871     
     4.1889570426340512    0.0000000000000000    0.0000000000000000
    -2.0944785213170256    3.6277432142828219    0.0000000000000000
     0.0000000000000000    0.0000000000000000   21.0634932139956383
   Fe   Sc
    18     6
Direct
  0.0000000000000000  0.0000000000000000  0.1898070449729730
  0.0000000000000000  0.0000000000000000  0.8101929550270270
  0.3333299999999966  0.6666700000000034  0.8564770449729693
  0.3333299999999966  0.6666700000000034  0.4768629550270305
  0.6666700000000034  0.3333299999999966  0.5231370449729695
  0.6666700000000034  0.3333299999999966  0.1435229550270307
  0.0000000000000000  0.0000000000000000  0.3152798927032947
  0.0000000000000000  0.0000000000000000  0.6847201072967053
  0.3333299999999966  0.6666700000000034  0.9819498927032981
  0.3333299999999966  0.6666700000000034  0.3513901072967016
  0.6666700000000034  0.3333299999999966  0.6486098927032984
  0.6666700000000034  0.3333299999999966  0.0180501072967019
  0.0000000000000000  0.0000000000000000  0.4464944239883764
  0.0000000000000000  0.0000000000000000  0.5535055760116236
  0.3333299999999966  0.6666700000000034  0.1131644239883798
  0.3333299999999966  0.6666700000000034  0.2201755760116200
  0.6666700000000034  0.3333299999999966  0.7798244239883800
  0.6666700000000034  0.3333299999999966  0.8868355760116202
  0.0000000000000000  0.0000000000000000  0.0672293571806790
  0.0000000000000000  0.0000000000000000  0.9327706428193210
  0.3333299999999966  0.6666700000000034  0.7338993571806753
  0.3333299999999966  0.6666700000000034  0.5994406428193244
  0.6666700000000034  0.3333299999999966  0.4005593571806756
  0.6666700000000034  0.3333299999999966  0.2661006428193247
 
  0.00000000E+00  0.00000000E+00  0.00000000E+00
  0.00000000E+00  0.00000000E+00  0.00000000E+00
  0.00000000E+00  0.00000000E+00  0.00000000E+00
  0.00000000E+00  0.00000000E+00  0.00000000E+00
  0.00000000E+00  0.00000000E+00  0.00000000E+00
  0.00000000E+00  0.00000000E+00  0.00000000E+00
  0.00000000E+00  0.00000000E+00  0.00000000E+00
  0.00000000E+00  0.00000000E+00  0.00000000E+00
  0.00000000E+00  0.00000000E+00  0.00000000E+00
  0.00000000E+00  0.00000000E+00  0.00000000E+00
  0.00000000E+00  0.00000000E+00  0.00000000E+00
  0.00000000E+00  0.00000000E+00  0.00000000E+00
  0.00000000E+00  0.00000000E+00  0.00000000E+00
  0.00000000E+00  0.00000000E+00  0.00000000E+00
  0.00000000E+00  0.00000000E+00  0.00000000E+00
  0.00000000E+00  0.00000000E+00  0.00000000E+00
  0.00000000E+00  0.00000000E+00  0.00000000E+00
  0.00000000E+00  0.00000000E+00  0.00000000E+00
  0.00000000E+00  0.00000000E+00  0.00000000E+00
  0.00000000E+00  0.00000000E+00  0.00000000E+00
  0.00000000E+00  0.00000000E+00  0.00000000E+00
  0.00000000E+00  0.00000000E+00  0.00000000E+00
  0.00000000E+00  0.00000000E+00  0.00000000E+00
  0.00000000E+00  0.00000000E+00  0.00000000E+00
