#12-C12/m1                              
   1.00000000070824     
     7.5539187089524527    0.0000000000000000   -0.0038279993494503
     0.0000000000000000    4.1761348184953144    0.0000000000000000
    -3.3098886048659684    0.0000000000000000    6.9223073352915714
   Fe   Sc
    12     4
Direct
  0.2987300591285020  0.0000000000000000  0.8080165050203689
  0.7012699408714980  0.0000000000000000  0.1919834949796311
  0.7987300591285020  0.5000000000000000  0.8080165050203689
  0.2012699408714980  0.5000000000000000  0.1919834949796311
  0.0000000000000000  0.0000000000000000  0.0000000000000000
  0.5000000000000000  0.5000000000000000  0.0000000000000000
  0.0000000000000000  0.5000000000000000  0.5000000000000000
  0.5000000000000000  0.0000000000000000  0.5000000000000000
  0.3538677920257243  0.0000000000000000  0.1394371248966095
  0.6461322079742757  0.0000000000000000  0.8605628751033905
  0.8538677920257243  0.5000000000000000  0.1394371248966095
  0.1461322079742757  0.5000000000000000  0.8605628751033905
  0.1089059853365910  0.0000000000000000  0.3688788457092684
  0.8910940146634090  0.0000000000000000  0.6311211542907316
  0.6089059853365910  0.5000000000000000  0.3688788457092684
  0.3910940146634090  0.5000000000000000  0.6311211542907316
 
  0.00000000E+00  0.00000000E+00  0.00000000E+00
  0.00000000E+00  0.00000000E+00  0.00000000E+00
  0.00000000E+00  0.00000000E+00  0.00000000E+00
  0.00000000E+00  0.00000000E+00  0.00000000E+00
  0.00000000E+00  0.00000000E+00  0.00000000E+00
  0.00000000E+00  0.00000000E+00  0.00000000E+00
  0.00000000E+00  0.00000000E+00  0.00000000E+00
  0.00000000E+00  0.00000000E+00  0.00000000E+00
  0.00000000E+00  0.00000000E+00  0.00000000E+00
  0.00000000E+00  0.00000000E+00  0.00000000E+00
  0.00000000E+00  0.00000000E+00  0.00000000E+00
  0.00000000E+00  0.00000000E+00  0.00000000E+00
  0.00000000E+00  0.00000000E+00  0.00000000E+00
  0.00000000E+00  0.00000000E+00  0.00000000E+00
  0.00000000E+00  0.00000000E+00  0.00000000E+00
  0.00000000E+00  0.00000000E+00  0.00000000E+00
