#51-P21/m2/m2/a                         
  0.999999998617152     
     4.1176660732626820    0.0000000000000000    0.0000000000000000
     0.0000000000000000    3.1676913439901719    0.0000000000000000
     0.0000000000000000    0.0000000000000000    8.4962811106536584
   Fe   Sc
     6     2
Direct
  0.2500000000000000  0.0000000000000000  0.8902469924488727
  0.7500000000000000  0.0000000000000000  0.1097530075511273
  0.2500000000000000  0.0000000000000000  0.3211858384841477
  0.7500000000000000  0.0000000000000000  0.6788141615158523
  0.2500000000000000  0.5000000000000000  0.1097395112689483
  0.7500000000000000  0.5000000000000000  0.8902604887310517
  0.2500000000000000  0.5000000000000000  0.6282842790340197
  0.7500000000000000  0.5000000000000000  0.3717157209659803
 
  0.00000000E+00  0.00000000E+00  0.00000000E+00
  0.00000000E+00  0.00000000E+00  0.00000000E+00
  0.00000000E+00  0.00000000E+00  0.00000000E+00
  0.00000000E+00  0.00000000E+00  0.00000000E+00
  0.00000000E+00  0.00000000E+00  0.00000000E+00
  0.00000000E+00  0.00000000E+00  0.00000000E+00
  0.00000000E+00  0.00000000E+00  0.00000000E+00
  0.00000000E+00  0.00000000E+00  0.00000000E+00
