#59-P21/m21/m2/n(originchoice2)         
  0.999999999729903     
     5.2232449183505727    0.0000000000000000    0.0000000000000000
     0.0000000000000000    4.2208460532734930    0.0000000000000000
     0.0000000000000000    0.0000000000000000    5.1652492801430618
   Fe   Sc
     6     2
Direct
  0.0135949084235847  0.2500000000000000  0.8666525850906694
  0.5135949084235847  0.7500000000000000  0.1333474149093306
  0.9864050915764153  0.7500000000000000  0.1333474149093306
  0.4864050915764153  0.2500000000000000  0.8666525850906694
  0.2500000000000000  0.7500000000000000  0.7523050522805121
  0.7500000000000000  0.2500000000000000  0.2476949477194879
  0.2500000000000000  0.2500000000000000  0.3865588706126601
  0.7500000000000000  0.7500000000000000  0.6134411293873399
 
  0.00000000E+00  0.00000000E+00  0.00000000E+00
  0.00000000E+00  0.00000000E+00  0.00000000E+00
  0.00000000E+00  0.00000000E+00  0.00000000E+00
  0.00000000E+00  0.00000000E+00  0.00000000E+00
  0.00000000E+00  0.00000000E+00  0.00000000E+00
  0.00000000E+00  0.00000000E+00  0.00000000E+00
  0.00000000E+00  0.00000000E+00  0.00000000E+00
  0.00000000E+00  0.00000000E+00  0.00000000E+00
