#2-P-1                                  
  0.999999999645197     
     4.8879980716915172    0.0043138430615710    0.0029413142549368
     2.4159719074508219    4.2525114004743854   -0.0019320787224881
     1.9697761671409755   -0.7025511658757038    5.4667404264678279
   Fe   Sc
     6     2
Direct
  0.9145881196703414  0.1498898724008058  0.8414377826631778
  0.0854118803296586  0.8501101275991942  0.1585622173368222
  0.2447335222275058  0.7491315047270604  0.5052874812260981
  0.7552664777724942  0.2508684952729396  0.4947125187739019
  0.2494246515925909  0.4483153189092661  0.8338441018676264
  0.7505753484074091  0.5516846810907339  0.1661558981323736
  0.3575927202515459  0.2162577608302669  0.2803775003525217
  0.6424072797484612  0.7837422391697331  0.7196224996474783
 
  0.00000000E+00  0.00000000E+00  0.00000000E+00
  0.00000000E+00  0.00000000E+00  0.00000000E+00
  0.00000000E+00  0.00000000E+00  0.00000000E+00
  0.00000000E+00  0.00000000E+00  0.00000000E+00
  0.00000000E+00  0.00000000E+00  0.00000000E+00
  0.00000000E+00  0.00000000E+00  0.00000000E+00
  0.00000000E+00  0.00000000E+00  0.00000000E+00
  0.00000000E+00  0.00000000E+00  0.00000000E+00
