#63-C2/m2/c21/m                         
  0.999999999472083     
     3.9880221731958070    0.0000000000000000    0.0000000000000000
     0.0000000000000000    9.1974132469433734    0.0000000000000000
     0.0000000000000000    0.0000000000000000    6.1085955517392003
   Fe   Sc
    12     4
Direct
  0.0000000000000000  0.7944198723965314  0.2500000000000000
  0.0000000000000000  0.2055801276034686  0.7500000000000000
  0.5000000000000000  0.2944198723965314  0.2500000000000000
  0.5000000000000000  0.7055801276034686  0.7500000000000000
  0.0000000000000000  0.6390371448414314  0.9432336841079376
  0.0000000000000000  0.3609628551585686  0.0567663158920624
  0.0000000000000000  0.6390371448414314  0.5567663158920624
  0.0000000000000000  0.3609628551585686  0.4432336841079376
  0.5000000000000000  0.1390371448414314  0.9432336841079376
  0.5000000000000000  0.8609628551585686  0.0567663158920624
  0.5000000000000000  0.1390371448414314  0.5567663158920624
  0.5000000000000000  0.8609628551585686  0.4432336841079376
  0.0000000000000000  0.0759157852567114  0.2500000000000000
  0.0000000000000000  0.9240842147432886  0.7500000000000000
  0.5000000000000000  0.5759157852567114  0.2500000000000000
  0.5000000000000000  0.4240842147432886  0.7500000000000000
 
  0.00000000E+00  0.00000000E+00  0.00000000E+00
  0.00000000E+00  0.00000000E+00  0.00000000E+00
  0.00000000E+00  0.00000000E+00  0.00000000E+00
  0.00000000E+00  0.00000000E+00  0.00000000E+00
  0.00000000E+00  0.00000000E+00  0.00000000E+00
  0.00000000E+00  0.00000000E+00  0.00000000E+00
  0.00000000E+00  0.00000000E+00  0.00000000E+00
  0.00000000E+00  0.00000000E+00  0.00000000E+00
  0.00000000E+00  0.00000000E+00  0.00000000E+00
  0.00000000E+00  0.00000000E+00  0.00000000E+00
  0.00000000E+00  0.00000000E+00  0.00000000E+00
  0.00000000E+00  0.00000000E+00  0.00000000E+00
  0.00000000E+00  0.00000000E+00  0.00000000E+00
  0.00000000E+00  0.00000000E+00  0.00000000E+00
  0.00000000E+00  0.00000000E+00  0.00000000E+00
  0.00000000E+00  0.00000000E+00  0.00000000E+00
