#11-P121/m1                             
  0.999999999772206     
     5.0185640965802945    0.0000000000000000    0.0013642275344999
     0.0000000000000000    3.9396633118679052    0.0000000000000000
    -0.7872647702390424    0.0000000000000000    5.7392346637673910
   Fe   Sc
     6     2
Direct
  0.9100365970803708  0.2500000000000000  0.0878810232803815
  0.0899634029196292  0.7500000000000000  0.9121189767196185
  0.2999973169342525  0.2500000000000000  0.7612286096216607
  0.7000026830657475  0.7500000000000000  0.2387713903783393
  0.4185784009595324  0.2500000000000000  0.1502526356923610
  0.5814215990404676  0.7500000000000000  0.8497473643076390
  0.7748163377688542  0.2500000000000000  0.5793324788462755
  0.2251836622311458  0.7500000000000000  0.4206675211537245
 
  0.00000000E+00  0.00000000E+00  0.00000000E+00
  0.00000000E+00  0.00000000E+00  0.00000000E+00
  0.00000000E+00  0.00000000E+00  0.00000000E+00
  0.00000000E+00  0.00000000E+00  0.00000000E+00
  0.00000000E+00  0.00000000E+00  0.00000000E+00
  0.00000000E+00  0.00000000E+00  0.00000000E+00
  0.00000000E+00  0.00000000E+00  0.00000000E+00
  0.00000000E+00  0.00000000E+00  0.00000000E+00
