#156-P3m1                               
   1.00000000073743     
     4.6592063525111884    0.0000000000000000    0.0000000000000000
    -2.3296031762555942    4.0349910627485253    0.0000000000000000
     0.0000000000000000    0.0000000000000000    5.7457725448353232
   Fe   Sc
     6     2
Direct
  0.1728821044172335  0.8271178955827665  0.7516378473083023
  0.1728821044172335  0.3457642088344599  0.7516378473083023
  0.6542357911655401  0.8271178955827665  0.7516378473083023
  0.0000000000000000  0.0000000000000000  0.0745200452295478
  0.6666700000000034  0.3333299999999966  0.9294117216654101
  0.0000000000000000  0.0000000000000000  0.4346885099331956
  0.6666700000000034  0.3333299999999966  0.4537876653793802
  0.3333299999999966  0.6666700000000034  0.1976285158675495
 
  0.00000000E+00  0.00000000E+00  0.00000000E+00
  0.00000000E+00  0.00000000E+00  0.00000000E+00
  0.00000000E+00  0.00000000E+00  0.00000000E+00
  0.00000000E+00  0.00000000E+00  0.00000000E+00
  0.00000000E+00  0.00000000E+00  0.00000000E+00
  0.00000000E+00  0.00000000E+00  0.00000000E+00
  0.00000000E+00  0.00000000E+00  0.00000000E+00
  0.00000000E+00  0.00000000E+00  0.00000000E+00
