#12-C12/m1                              
   1.00000000035241     
     9.2131729333245733    0.0000000000000000   -0.0101326905414797
     0.0000000000000000    3.9458859236770554    0.0000000000000000
    -4.0301829269057974    0.0000000000000000    6.1095074513960261
   Fe   Sc
    12     4
Direct
  0.0241279376135779  0.0000000000000000  0.1940653543031416
  0.9758720623864221  0.0000000000000000  0.8059346456968584
  0.5241279376135779  0.5000000000000000  0.1940653543031416
  0.4758720623864221  0.5000000000000000  0.8059346456968584
  0.0000000000000000  0.0000000000000000  0.5000000000000000
  0.5000000000000000  0.5000000000000000  0.5000000000000000
  0.6812916831202571  0.0000000000000000  0.3999681698103643
  0.3187083168797429  0.0000000000000000  0.6000318301896357
  0.1812916831202571  0.5000000000000000  0.3999681698103643
  0.8187083168797429  0.5000000000000000  0.6000318301896357
  0.0000000000000000  0.5000000000000000  0.0000000000000000
  0.5000000000000000  0.0000000000000000  0.0000000000000000
  0.3118358931014100  0.0000000000000000  0.2109077478253880
  0.6881641068985900  0.0000000000000000  0.7890922521746120
  0.8118358931014100  0.5000000000000000  0.2109077478253880
  0.1881641068985900  0.5000000000000000  0.7890922521746120
 
  0.00000000E+00  0.00000000E+00  0.00000000E+00
  0.00000000E+00  0.00000000E+00  0.00000000E+00
  0.00000000E+00  0.00000000E+00  0.00000000E+00
  0.00000000E+00  0.00000000E+00  0.00000000E+00
  0.00000000E+00  0.00000000E+00  0.00000000E+00
  0.00000000E+00  0.00000000E+00  0.00000000E+00
  0.00000000E+00  0.00000000E+00  0.00000000E+00
  0.00000000E+00  0.00000000E+00  0.00000000E+00
  0.00000000E+00  0.00000000E+00  0.00000000E+00
  0.00000000E+00  0.00000000E+00  0.00000000E+00
  0.00000000E+00  0.00000000E+00  0.00000000E+00
  0.00000000E+00  0.00000000E+00  0.00000000E+00
  0.00000000E+00  0.00000000E+00  0.00000000E+00
  0.00000000E+00  0.00000000E+00  0.00000000E+00
  0.00000000E+00  0.00000000E+00  0.00000000E+00
  0.00000000E+00  0.00000000E+00  0.00000000E+00
