#11-P121/m1                             
   1.00000000071917     
     5.0888859093825394    0.0000000000000000   -0.0128755299657669
     0.0000000000000000    4.1322208801748364    0.0000000000000000
    -0.8039205505193975    0.0000000000000000    5.1812095214101603
   Fe   Sc
     6     2
Direct
  0.1359455846576623  0.2500000000000000  0.4478019915549254
  0.8640544153423377  0.7500000000000000  0.5521980084450746
  0.1014063563251639  0.2500000000000000  0.9494083112257670
  0.8985936436748361  0.7500000000000000  0.0505916887742330
  0.6735576807989148  0.2500000000000000  0.6940960026426737
  0.3264423192010852  0.7500000000000000  0.3059039973573263
  0.6262242685490094  0.2500000000000000  0.2055974109594843
  0.3737757314509906  0.7500000000000000  0.7944025890405157
 
  0.00000000E+00  0.00000000E+00  0.00000000E+00
  0.00000000E+00  0.00000000E+00  0.00000000E+00
  0.00000000E+00  0.00000000E+00  0.00000000E+00
  0.00000000E+00  0.00000000E+00  0.00000000E+00
  0.00000000E+00  0.00000000E+00  0.00000000E+00
  0.00000000E+00  0.00000000E+00  0.00000000E+00
  0.00000000E+00  0.00000000E+00  0.00000000E+00
  0.00000000E+00  0.00000000E+00  0.00000000E+00
