#51-P21/m2/m2/a                         
  0.999999999634564     
     4.8189290983946460    0.0000000000000000    0.0000000000000000
     0.0000000000000000    3.9772861755797697    0.0000000000000000
     0.0000000000000000    0.0000000000000000    5.9348099961957033
   Fe   Sc
     6     2
Direct
  0.2500000000000000  0.0000000000000000  0.8615025638213396
  0.7500000000000000  0.0000000000000000  0.1384974361786604
  0.0000000000000000  0.0000000000000000  0.5000000000000000
  0.5000000000000000  0.0000000000000000  0.5000000000000000
  0.2500000000000000  0.5000000000000000  0.6259407352138524
  0.7500000000000000  0.5000000000000000  0.3740592647861476
  0.2500000000000000  0.5000000000000000  0.1729352165527160
  0.7500000000000000  0.5000000000000000  0.8270647834472840
 
  0.00000000E+00  0.00000000E+00  0.00000000E+00
  0.00000000E+00  0.00000000E+00  0.00000000E+00
  0.00000000E+00  0.00000000E+00  0.00000000E+00
  0.00000000E+00  0.00000000E+00  0.00000000E+00
  0.00000000E+00  0.00000000E+00  0.00000000E+00
  0.00000000E+00  0.00000000E+00  0.00000000E+00
  0.00000000E+00  0.00000000E+00  0.00000000E+00
  0.00000000E+00  0.00000000E+00  0.00000000E+00
