#74-I21/m21/m21/a                       
   1.00000000031448     
     3.1182984439026540    0.0000000000000000    0.0000000000000000
     0.0000000000000000    4.1645143266009379    0.0000000000000000
     0.0000000000000000    0.0000000000000000   16.8894538923366504
   Fe   Sc
    12     4
Direct
  0.0000000000000000  0.2500000000000000  0.9135029108966961
  0.0000000000000000  0.7500000000000000  0.0864970891033039
  0.5000000000000000  0.7500000000000000  0.4135029108966961
  0.5000000000000000  0.2500000000000000  0.5864970891033039
  0.0000000000000000  0.2500000000000000  0.1967211172708687
  0.0000000000000000  0.7500000000000000  0.8032788827291313
  0.5000000000000000  0.7500000000000000  0.6967211172708687
  0.5000000000000000  0.2500000000000000  0.3032788827291313
  0.0000000000000000  0.2500000000000000  0.6932736430727715
  0.0000000000000000  0.7500000000000000  0.3067263569272285
  0.5000000000000000  0.7500000000000000  0.1932736430727715
  0.5000000000000000  0.2500000000000000  0.8067263569272285
  0.0000000000000000  0.2500000000000000  0.4348338966614804
  0.0000000000000000  0.7500000000000000  0.5651661033385196
  0.5000000000000000  0.7500000000000000  0.9348338966614804
  0.5000000000000000  0.2500000000000000  0.0651661033385196
 
  0.00000000E+00  0.00000000E+00  0.00000000E+00
  0.00000000E+00  0.00000000E+00  0.00000000E+00
  0.00000000E+00  0.00000000E+00  0.00000000E+00
  0.00000000E+00  0.00000000E+00  0.00000000E+00
  0.00000000E+00  0.00000000E+00  0.00000000E+00
  0.00000000E+00  0.00000000E+00  0.00000000E+00
  0.00000000E+00  0.00000000E+00  0.00000000E+00
  0.00000000E+00  0.00000000E+00  0.00000000E+00
  0.00000000E+00  0.00000000E+00  0.00000000E+00
  0.00000000E+00  0.00000000E+00  0.00000000E+00
  0.00000000E+00  0.00000000E+00  0.00000000E+00
  0.00000000E+00  0.00000000E+00  0.00000000E+00
  0.00000000E+00  0.00000000E+00  0.00000000E+00
  0.00000000E+00  0.00000000E+00  0.00000000E+00
  0.00000000E+00  0.00000000E+00  0.00000000E+00
  0.00000000E+00  0.00000000E+00  0.00000000E+00
