#166-R-32/m(hexagonalaxes)              
   1.00000000067987     
     3.9776697448446710    0.0000000000000000    0.0000000000000000
    -1.9888348724223355    3.4447630469002508    0.0000000000000000
     0.0000000000000000    0.0000000000000000   17.1421602609592973
   Fe   Si
    18     3
Direct
  0.0000000000000000  0.0000000000000000  0.2854013652204728
  0.0000000000000000  0.0000000000000000  0.7145986347795272
  0.3333330000000032  0.6666669999999968  0.9520683652204696
  0.3333330000000032  0.6666669999999968  0.3812656347795311
  0.6666669999999968  0.3333330000000032  0.6187343652204689
  0.6666669999999968  0.3333330000000032  0.0479316347795304
  0.0000000000000000  0.0000000000000000  0.8562659457410717
  0.0000000000000000  0.0000000000000000  0.1437340542589283
  0.3333330000000032  0.6666669999999968  0.5229329457410685
  0.3333330000000032  0.6666669999999968  0.8104010542589322
  0.6666669999999968  0.3333330000000032  0.1895989457410678
  0.6666669999999968  0.3333330000000032  0.4770670542589315
  0.0000000000000000  0.0000000000000000  0.5723255341496269
  0.0000000000000000  0.0000000000000000  0.4276744658503731
  0.3333330000000032  0.6666669999999968  0.2389925341496237
  0.3333330000000032  0.6666669999999968  0.0943414658503769
  0.6666669999999968  0.3333330000000032  0.9056585341496231
  0.6666669999999968  0.3333330000000032  0.7610074658503763
  0.0000000000000000  0.0000000000000000  0.0000000000000000
  0.3333330000000032  0.6666669999999968  0.6666669999999968
  0.6666669999999968  0.3333330000000032  0.3333330000000032
 
  0.00000000E+00  0.00000000E+00  0.00000000E+00
  0.00000000E+00  0.00000000E+00  0.00000000E+00
  0.00000000E+00  0.00000000E+00  0.00000000E+00
  0.00000000E+00  0.00000000E+00  0.00000000E+00
  0.00000000E+00  0.00000000E+00  0.00000000E+00
  0.00000000E+00  0.00000000E+00  0.00000000E+00
  0.00000000E+00  0.00000000E+00  0.00000000E+00
  0.00000000E+00  0.00000000E+00  0.00000000E+00
  0.00000000E+00  0.00000000E+00  0.00000000E+00
  0.00000000E+00  0.00000000E+00  0.00000000E+00
  0.00000000E+00  0.00000000E+00  0.00000000E+00
  0.00000000E+00  0.00000000E+00  0.00000000E+00
  0.00000000E+00  0.00000000E+00  0.00000000E+00
  0.00000000E+00  0.00000000E+00  0.00000000E+00
  0.00000000E+00  0.00000000E+00  0.00000000E+00
  0.00000000E+00  0.00000000E+00  0.00000000E+00
  0.00000000E+00  0.00000000E+00  0.00000000E+00
  0.00000000E+00  0.00000000E+00  0.00000000E+00
  0.00000000E+00  0.00000000E+00  0.00000000E+00
  0.00000000E+00  0.00000000E+00  0.00000000E+00
  0.00000000E+00  0.00000000E+00  0.00000000E+00
