#12-C12/m1                              
   1.00000000056373     
     8.8252784063038572    0.0000000000000000   -0.0031443453843992
     0.0000000000000000    2.8882253274477603    0.0000000000000000
    -0.8877260155551789    0.0000000000000000    6.1674216294259372
   Fe   Si
    12     2
Direct
  0.7846743399411338  0.0000000000000000  0.3588740751847226
  0.2153256600588662  0.0000000000000000  0.6411259248152703
  0.2846743399411338  0.5000000000000000  0.3588740751847226
  0.7153256600588662  0.5000000000000000  0.6411259248152703
  0.0729627326017308  0.0000000000000000  0.2150576675359446
  0.9270372673982692  0.0000000000000000  0.7849423324640554
  0.5729627326017308  0.5000000000000000  0.2150576675359446
  0.4270372673982692  0.5000000000000000  0.7849423324640554
  0.3585387335315531  0.0000000000000000  0.0738865981153296
  0.6414612664684469  0.0000000000000000  0.9261134018846704
  0.8585387335315531  0.5000000000000000  0.0738865981153296
  0.1414612664684469  0.5000000000000000  0.9261134018846704
  0.0000000000000000  0.5000000000000000  0.5000000000000000
  0.5000000000000000  0.0000000000000000  0.5000000000000000
 
  0.00000000E+00  0.00000000E+00  0.00000000E+00
  0.00000000E+00  0.00000000E+00  0.00000000E+00
  0.00000000E+00  0.00000000E+00  0.00000000E+00
  0.00000000E+00  0.00000000E+00  0.00000000E+00
  0.00000000E+00  0.00000000E+00  0.00000000E+00
  0.00000000E+00  0.00000000E+00  0.00000000E+00
  0.00000000E+00  0.00000000E+00  0.00000000E+00
  0.00000000E+00  0.00000000E+00  0.00000000E+00
  0.00000000E+00  0.00000000E+00  0.00000000E+00
  0.00000000E+00  0.00000000E+00  0.00000000E+00
  0.00000000E+00  0.00000000E+00  0.00000000E+00
  0.00000000E+00  0.00000000E+00  0.00000000E+00
  0.00000000E+00  0.00000000E+00  0.00000000E+00
  0.00000000E+00  0.00000000E+00  0.00000000E+00
