#12-C12/m1                              
  0.999999999621751     
     8.4812985364720177    0.0000000000000000   -0.0002491948722403
     0.0000000000000000    3.9848823929006949    0.0000000000000000
    -0.4784112341641690    0.0000000000000000    4.6511881559889208
   Fe   Si
    12     2
Direct
  0.2885800247717398  0.0000000000000000  0.6404043796725389
  0.7114199752282602  0.0000000000000000  0.3595956203274611
  0.7885800247717398  0.5000000000000000  0.6404043796725389
  0.2114199752282602  0.5000000000000000  0.3595956203274611
  0.4289417596249976  0.0000000000000000  0.2130866403460558
  0.5710582403750024  0.0000000000000000  0.7869133596539442
  0.9289417596249976  0.5000000000000000  0.2130866403460558
  0.0710582403750024  0.5000000000000000  0.7869133596539442
  0.8576698461150016  0.0000000000000000  0.9352885616696867
  0.1423301538849984  0.0000000000000000  0.0647114383303133
  0.3576698461150016  0.5000000000000000  0.9352885616696867
  0.6423301538849984  0.5000000000000000  0.0647114383303133
  0.0000000000000000  0.0000000000000000  0.5000000000000000
  0.5000000000000000  0.5000000000000000  0.5000000000000000
 
  0.00000000E+00  0.00000000E+00  0.00000000E+00
  0.00000000E+00  0.00000000E+00  0.00000000E+00
  0.00000000E+00  0.00000000E+00  0.00000000E+00
  0.00000000E+00  0.00000000E+00  0.00000000E+00
  0.00000000E+00  0.00000000E+00  0.00000000E+00
  0.00000000E+00  0.00000000E+00  0.00000000E+00
  0.00000000E+00  0.00000000E+00  0.00000000E+00
  0.00000000E+00  0.00000000E+00  0.00000000E+00
  0.00000000E+00  0.00000000E+00  0.00000000E+00
  0.00000000E+00  0.00000000E+00  0.00000000E+00
  0.00000000E+00  0.00000000E+00  0.00000000E+00
  0.00000000E+00  0.00000000E+00  0.00000000E+00
  0.00000000E+00  0.00000000E+00  0.00000000E+00
  0.00000000E+00  0.00000000E+00  0.00000000E+00
