#191 (P 6/m m m)                        
   4.88686999690208     
     0.9998742263320424   -0.0000000000000000    0.0000000000000000
    -0.4999371131660212    0.8659160769673339   -0.0000000000000000
    -0.0000000000000000   -0.0000000000000000    1.0381228507112097
   Fe   Ta
     3     4
Direct
  0.5000000000000000  0.0000000000000000  0.0000000000000000
  0.5000000000000000  0.5000000000000000  0.0000000000000000
 -0.0000000000000000  0.5000000000000000  0.0000000000000000
 -0.0000000000000000  0.0000000000000000  0.7501312791116908
 -0.0000000000000000  0.0000000000000000  0.2498687208883091
  0.3333299999999966  0.6666700000000034  0.5000000000000000
  0.6666600000000003  0.3333299999999966  0.5000000000000000
 
  0.00000000E+00  0.00000000E+00  0.00000000E+00
  0.00000000E+00  0.00000000E+00  0.00000000E+00
  0.00000000E+00  0.00000000E+00  0.00000000E+00
  0.00000000E+00  0.00000000E+00  0.00000000E+00
  0.00000000E+00  0.00000000E+00  0.00000000E+00
  0.00000000E+00  0.00000000E+00  0.00000000E+00
  0.00000000E+00  0.00000000E+00  0.00000000E+00
