#1 (P 1)                                
   4.88161000333685     
     1.0016620478508680   -0.0005440076795884    0.0002031535007217
    -0.4911043501454239    1.3464427672605390   -0.0018117394913446
    -0.4810511638759818   -0.2137640728755734    1.3413505018343894
   Fe   Ta
     6     8
Direct
  0.5183948987543376  0.8813713803386299  0.6336477307393470
  0.5033415698183759  0.4990682374965135  0.4986117675369635
  0.9997978113134683  0.7579275351843110  0.7504630611590347
  0.9889592135818714  0.2385067543096551  0.2460403720704591
  0.4968100421982410  0.9980928651211546  0.9979700417935612
  0.9996230160505551  0.9999689527181914  0.9999854061601329
  0.0086635890961592  0.5047548662574948  0.5008893573552361
  0.4835794028412019  0.1025522936819308  0.3851349211909589
  0.1588085001150182  0.1516615162461592  0.6717100057939992
  0.8223472015570746  0.3194095780031613  0.8380415544433026
  0.1590793472131423  0.6679424211187825  0.1525364217840787
  0.5205568921032309  0.6422983028042042  0.8760781074595025
  0.4786968584350076  0.3637099521066798  0.1169097376205248
  0.8185416569223020  0.8345653446131237  0.3229715148929097
 
  0.00000000E+00  0.00000000E+00  0.00000000E+00
  0.00000000E+00  0.00000000E+00  0.00000000E+00
  0.00000000E+00  0.00000000E+00  0.00000000E+00
  0.00000000E+00  0.00000000E+00  0.00000000E+00
  0.00000000E+00  0.00000000E+00  0.00000000E+00
  0.00000000E+00  0.00000000E+00  0.00000000E+00
  0.00000000E+00  0.00000000E+00  0.00000000E+00
  0.00000000E+00  0.00000000E+00  0.00000000E+00
  0.00000000E+00  0.00000000E+00  0.00000000E+00
  0.00000000E+00  0.00000000E+00  0.00000000E+00
  0.00000000E+00  0.00000000E+00  0.00000000E+00
  0.00000000E+00  0.00000000E+00  0.00000000E+00
  0.00000000E+00  0.00000000E+00  0.00000000E+00
  0.00000000E+00  0.00000000E+00  0.00000000E+00
