#5 (C 2) [unique axis c] cell choice 1  
   17.0055700106464     
     0.0437505279424989    0.0000000000000000   -0.2936811883755675
    -0.5004960791919263    0.1449984334850517    0.0001417371166424
     0.5004960791919263    0.1449984334850517   -0.0001417371166424
   Fe   Ta
     6     8
Direct
  0.5000000000000000  0.0088782904066420  0.0088782904066420
  0.6878458141175604  0.6628190059464922  0.8765871897496773
  0.3121541858824395  0.8765871897496773  0.6628190059464922
  0.9069168532394221  0.3135385481929194  0.7235674556170384
  0.0930831467605780  0.7235674556170384  0.3135385481929194
  0.0000000000000000  0.9987462276451516  0.9987462276451516
  0.7012137087541318  0.1699802254204614  0.3768887167094248
  0.2987862912458680  0.3768887167094248  0.1699802254204614
  0.3547955863118107  0.2774620840968456  0.7520919937379728
  0.6452044136881893  0.7520919937379728  0.2774620840968456
  0.1828221459827159  0.8648086427713874  0.1644952479549196
  0.8171778540172842  0.1644952479549196  0.8648086427713874
  0.7744656892234746  0.5887107964015410  0.4841755753495305
  0.2255343107765256  0.4841755753495305  0.5887107964015410
 
  0.00000000E+00  0.00000000E+00  0.00000000E+00
  0.00000000E+00  0.00000000E+00  0.00000000E+00
  0.00000000E+00  0.00000000E+00  0.00000000E+00
  0.00000000E+00  0.00000000E+00  0.00000000E+00
  0.00000000E+00  0.00000000E+00  0.00000000E+00
  0.00000000E+00  0.00000000E+00  0.00000000E+00
  0.00000000E+00  0.00000000E+00  0.00000000E+00
  0.00000000E+00  0.00000000E+00  0.00000000E+00
  0.00000000E+00  0.00000000E+00  0.00000000E+00
  0.00000000E+00  0.00000000E+00  0.00000000E+00
  0.00000000E+00  0.00000000E+00  0.00000000E+00
  0.00000000E+00  0.00000000E+00  0.00000000E+00
  0.00000000E+00  0.00000000E+00  0.00000000E+00
  0.00000000E+00  0.00000000E+00  0.00000000E+00
