#123 (P 4/m m m)                        
   2.47283000304777     
     1.0022092141721815    0.0000000000000000   -0.0000000000000000
     0.0000000000000000    1.0022092141721815   -0.0000000000000000
    -0.0000000000000000    0.0000000000000000    2.3534739600274017
   Fe   B 
     3     1
Direct
 -0.0000000000000000 -0.0000000000000000  0.5000000000000000
  0.5000000000000000  0.5000000000000000  0.2090660080821706
  0.5000000000000000  0.5000000000000000  0.7909339919178294
 -0.0000000000000000 -0.0000000000000000 -0.0000000000000000
 
  0.00000000E+00  0.00000000E+00  0.00000000E+00
  0.00000000E+00  0.00000000E+00  0.00000000E+00
  0.00000000E+00  0.00000000E+00  0.00000000E+00
  0.00000000E+00  0.00000000E+00  0.00000000E+00
