#38 (A m m 2)                           
   2.77857000425226     
     0.9983371060132856    0.0000000000000000    0.0000000000000000
     0.0000000000000000   -0.4925257051711947   -1.8837959379294305
     0.0000000000000000    0.4925257051711947   -1.8837959379294305
   Fe   B 
     3     1
Direct
  0.5000000000000000  0.8562094603043894  0.8562094603043894
  0.5000000000000000  0.5686038818585011  0.5686038818585011
  0.0000000000000000  0.2142365051744256  0.2142365051744256
  0.0000000000000000  0.0001501526626864  0.0001501526626864
 
  0.00000000E+00  0.00000000E+00  0.00000000E+00
  0.00000000E+00  0.00000000E+00  0.00000000E+00
  0.00000000E+00  0.00000000E+00  0.00000000E+00
  0.00000000E+00  0.00000000E+00  0.00000000E+00
