#160-R3m(hexagonalaxes)                 
  0.999999998638982     
     7.1918491494192587    0.0000000000000000    0.0000000000000000
    -3.5959245747096293    6.2283240635825852    0.0000000000000000
     0.0000000000000000    0.0000000000000000    2.6678133111350921
   Fe   B 
     9     3
Direct
  0.5407013953082043  0.4592986046917957  0.2715825160919749
  0.5407013953082043  0.0814027906164156  0.2715825160919749
  0.9185972093835844  0.4592986046917957  0.2715825160919749
  0.8740343953082075  0.1259656046917925  0.9382495160919717
  0.8740343953082075  0.7480697906164124  0.9382495160919717
  0.2519302093835876  0.1259656046917925  0.9382495160919717
  0.2073683953082082  0.7926316046917918  0.6049155160919781
  0.2073683953082082  0.4147357906164117  0.6049155160919781
  0.5852642093835883  0.7926316046917918  0.6049155160919781
  0.0000000000000000  0.0000000000000000  0.4372924517240833
  0.3333330000000032  0.6666669999999968  0.1039594517240801
  0.6666669999999968  0.3333330000000032  0.7706254517240794
 
  0.00000000E+00  0.00000000E+00  0.00000000E+00
  0.00000000E+00  0.00000000E+00  0.00000000E+00
  0.00000000E+00  0.00000000E+00  0.00000000E+00
  0.00000000E+00  0.00000000E+00  0.00000000E+00
  0.00000000E+00  0.00000000E+00  0.00000000E+00
  0.00000000E+00  0.00000000E+00  0.00000000E+00
  0.00000000E+00  0.00000000E+00  0.00000000E+00
  0.00000000E+00  0.00000000E+00  0.00000000E+00
  0.00000000E+00  0.00000000E+00  0.00000000E+00
  0.00000000E+00  0.00000000E+00  0.00000000E+00
  0.00000000E+00  0.00000000E+00  0.00000000E+00
  0.00000000E+00  0.00000000E+00  0.00000000E+00
