#8 (C m) [unique axis c] cell choice 1  
   4.77308000830328     
    -0.2915985702543548    0.0000000000000000    0.5037844138841896
     0.5369275119239182    0.6935074012099717   -0.0232452412102677
    -0.5369275119239182    0.6935074012099717    0.0232452412102677
   Fe   B 
     3     1
Direct
  0.3072951962021601  0.0000350636826185  0.3939033904525697
  0.3072951962021601  0.6060966095474374  0.9999649363173816
  0.8425590542744564  0.3414883855747110  0.6585116144252890
  0.0109205533212209  0.0079199411952253  0.9920800588047748
 
  0.00000000E+00  0.00000000E+00  0.00000000E+00
  0.00000000E+00  0.00000000E+00  0.00000000E+00
  0.00000000E+00  0.00000000E+00  0.00000000E+00
  0.00000000E+00  0.00000000E+00  0.00000000E+00
