#44-Imm2                                
   1.00000000285057     
     2.7779563313178328    0.0000000000000000    0.0000000000000000
     0.0000000000000000    6.6186656770427588    0.0000000000000000
     0.0000000000000000    0.0000000000000000    4.3257880327892000
   Fe   B 
     6     2
Direct
  0.0000000000000000  0.1968471879806160  0.5627559540177174
  0.0000000000000000  0.8031528120193840  0.5627559540177174
  0.5000000000000000  0.6968471879806160  0.0627559540177174
  0.5000000000000000  0.3031528120193840  0.0627559540177174
  0.0000000000000000  0.0000000000000000  0.0242465037357960
  0.5000000000000000  0.5000000000000000  0.5242465037357960
  0.0000000000000000  0.5000000000000000  0.8576515882287694
  0.5000000000000000  0.0000000000000000  0.3576515882287694
 
  0.00000000E+00  0.00000000E+00  0.00000000E+00
  0.00000000E+00  0.00000000E+00  0.00000000E+00
  0.00000000E+00  0.00000000E+00  0.00000000E+00
  0.00000000E+00  0.00000000E+00  0.00000000E+00
  0.00000000E+00  0.00000000E+00  0.00000000E+00
  0.00000000E+00  0.00000000E+00  0.00000000E+00
  0.00000000E+00  0.00000000E+00  0.00000000E+00
  0.00000000E+00  0.00000000E+00  0.00000000E+00
