#6 (P m) [unique axis c]                
   5.08376999869749     
     0.1619900563278117    0.0000000000000000   -1.4569690686812382
    -0.9992442027146863    0.0000000000000000    0.0019431296756375
     0.0000000000000000    0.7932644693462274    0.0000000000000000
   Co   Fe   Ta
     3     6     3
Direct
  0.1899297493390926  0.2864749791262064  0.5000000000000000
  0.3722668378514701  0.5660914814092077  0.0000000000000000
  0.0002666547746529  0.9996534031083638  0.0000000000000000
  0.6803842982718138  0.7745300908657290 -0.0000000000000000
  0.5179012785376115  0.8968431007086516  0.5000000000000000
  0.5199158100347512  0.4139218482815744  0.5000000000000000
  0.1805378235456606  0.7826518908378777  0.5000000000000000
  0.6764814058211052  0.2854335923897693 -0.0000000000000000
  0.8385116001671934  0.6319910141928683  0.5000000000000000
  0.0348964360105952  0.5133453965334196  0.0000000000000000
  0.3398813315033907  0.0598185457403319  0.0000000000000000
  0.8407667741426518  0.1297646568059841  0.5000000000000000
 
  0.00000000E+00  0.00000000E+00  0.00000000E+00
  0.00000000E+00  0.00000000E+00  0.00000000E+00
  0.00000000E+00  0.00000000E+00  0.00000000E+00
  0.00000000E+00  0.00000000E+00  0.00000000E+00
  0.00000000E+00  0.00000000E+00  0.00000000E+00
  0.00000000E+00  0.00000000E+00  0.00000000E+00
  0.00000000E+00  0.00000000E+00  0.00000000E+00
  0.00000000E+00  0.00000000E+00  0.00000000E+00
  0.00000000E+00  0.00000000E+00  0.00000000E+00
  0.00000000E+00  0.00000000E+00  0.00000000E+00
  0.00000000E+00  0.00000000E+00  0.00000000E+00
  0.00000000E+00  0.00000000E+00  0.00000000E+00
