#1 (P 1)                                
   5.12272000323575     
     0.9991956680472093   -0.0011084995249190    0.0000086861664144
     0.4354919657274277    0.9052807782328389    0.0004315949075752
     0.3915579620586839    0.2423014186591981    1.2371451870027177
   Co   Fe   Ta
     3     6     3
Direct
  0.5305535560835359  0.9934671150921724  0.9981361072523948
  0.7792652830988794  0.2712377278738086  0.6612189884542578
  0.0004408084539041  0.9999345397372728  0.0001422398698359
  0.6000603104222852  0.0876926018358178  0.3399091114467410
  0.7792238459626212  0.7837201753491279  0.6598006494478116
  0.9828755336844761  0.5323112284126329  0.0019857073427733
  0.2742790184697990  0.7782535253242552  0.6606818709105328
  0.0848662026751498  0.5972243311053761  0.3427517434187195
  0.5982824571346442  0.6001863311486731  0.3437487133321506
  0.2688035340402621  0.2705096153076566  0.6901454429348859
  0.4981692150817382  0.5009002773724500  0.9998366329111485
  0.1073702348927059  0.1011925314407559  0.3111327926787552
 
  0.00000000E+00  0.00000000E+00  0.00000000E+00
  0.00000000E+00  0.00000000E+00  0.00000000E+00
  0.00000000E+00  0.00000000E+00  0.00000000E+00
  0.00000000E+00  0.00000000E+00  0.00000000E+00
  0.00000000E+00  0.00000000E+00  0.00000000E+00
  0.00000000E+00  0.00000000E+00  0.00000000E+00
  0.00000000E+00  0.00000000E+00  0.00000000E+00
  0.00000000E+00  0.00000000E+00  0.00000000E+00
  0.00000000E+00  0.00000000E+00  0.00000000E+00
  0.00000000E+00  0.00000000E+00  0.00000000E+00
  0.00000000E+00  0.00000000E+00  0.00000000E+00
  0.00000000E+00  0.00000000E+00  0.00000000E+00
