#6 (P m) [unique axis c]                
   9.02353000381530     
    -0.9994800782391235    0.0000000000000000    0.0010846349698926
     0.0033158026503928    0.0000000000000000   -0.7095981868632887
     0.0000000000000000   -0.5742396384640854    0.0000000000000000
   Co   Fe   Ta
     6    12     6
Direct
  0.5824854067462977  0.6697794928638163  0.2511823916109825
  0.5824854067462977  0.6697794928638163  0.7488176083890175
  0.0824890448366864  0.6697536518544494  0.7511795984787730
  0.0824890448366864  0.6697536518544494  0.2488204015212270
  0.5008686303097567  0.9991693983652692  0.5000000000000000
  0.0008641600142162  0.9991414879358990 -0.0000000000000000
  0.9117451060220503  0.3331561484027130  0.2482600426775095
  0.9117451060220503  0.3331561484027130  0.7517399573224904
  0.4117421661768760  0.3331652758029593  0.7482580884427786
  0.4117421661768760  0.3331652758029593  0.2517419115572214
  0.1590013944797471  0.3408559254174482  0.5000000000000000
  0.6589897778345345  0.3408875223581914 -0.0000000000000000
  0.7483173745338056  0.0032979313439808  0.2502905179401798
  0.7483173745338056  0.0032979313439808  0.7497094820598202
  0.2483200113505360  0.0032795838997450  0.7502996346755265
  0.2483200113505360  0.0032795838997450  0.2497003653244735
  0.8320667727698551  0.6666913401115983  0.5000000000000000
  0.3320651338141629  0.6666842428328035 -0.0000000000000000
  0.0000063627910579  0.9946943950637952  0.5000000000000000
  0.4999369692009583  0.9947260903818821 -0.0000000000000000
  0.6601486995938050  0.3390554704569917  0.5000000000000000
  0.1601568174432196  0.3390477573092542 -0.0000000000000000
  0.3340072522813967  0.6733303460625842  0.5000000000000000
  0.8340098101347527  0.6733518553689719 -0.0000000000000000
 
  0.00000000E+00  0.00000000E+00  0.00000000E+00
  0.00000000E+00  0.00000000E+00  0.00000000E+00
  0.00000000E+00  0.00000000E+00  0.00000000E+00
  0.00000000E+00  0.00000000E+00  0.00000000E+00
  0.00000000E+00  0.00000000E+00  0.00000000E+00
  0.00000000E+00  0.00000000E+00  0.00000000E+00
  0.00000000E+00  0.00000000E+00  0.00000000E+00
  0.00000000E+00  0.00000000E+00  0.00000000E+00
  0.00000000E+00  0.00000000E+00  0.00000000E+00
  0.00000000E+00  0.00000000E+00  0.00000000E+00
  0.00000000E+00  0.00000000E+00  0.00000000E+00
  0.00000000E+00  0.00000000E+00  0.00000000E+00
  0.00000000E+00  0.00000000E+00  0.00000000E+00
  0.00000000E+00  0.00000000E+00  0.00000000E+00
  0.00000000E+00  0.00000000E+00  0.00000000E+00
  0.00000000E+00  0.00000000E+00  0.00000000E+00
  0.00000000E+00  0.00000000E+00  0.00000000E+00
  0.00000000E+00  0.00000000E+00  0.00000000E+00
  0.00000000E+00  0.00000000E+00  0.00000000E+00
  0.00000000E+00  0.00000000E+00  0.00000000E+00
  0.00000000E+00  0.00000000E+00  0.00000000E+00
  0.00000000E+00  0.00000000E+00  0.00000000E+00
  0.00000000E+00  0.00000000E+00  0.00000000E+00
  0.00000000E+00  0.00000000E+00  0.00000000E+00
