#1 (P 1)                                
   4.71076000413250     
     0.9988324861915350    0.0002276006689245   -0.0001691880357947
     0.4917005973460920    0.8767030729240226   -0.0002686980724485
     0.0010114526206502    0.0013398775045627    1.6337253100143343
   Co   Fe   Ta
     3     6     3
Direct
  0.5105378330683410  0.4901693903849111  0.9985143300944578
  0.3416855419978938  0.3172199411311384  0.4981979809533539
  0.0002885697630687  0.0001507256566199  0.0002591865674623
  0.1716835099054211  0.6581672475388999  0.2479113474670855
  0.1662234317293419  0.6606875676760580  0.7524984819594772
  0.0002687696103797  0.4891226532654034  0.9989850584443993
  0.8342965941954144  0.8245301467518451  0.4975828708701853
  0.3389359519204408  0.8251465378276542  0.4991259848667081
  0.8386247885411069  0.3290667646664958  0.3033527357253890
  0.8363617924976110  0.3260982223816198  0.6643473079298271
  0.5028934990718639  0.9910950101993777  0.8167922957912892
  0.5046197176991288  0.9937357925199740  0.1960324193303627
 
  0.00000000E+00  0.00000000E+00  0.00000000E+00
  0.00000000E+00  0.00000000E+00  0.00000000E+00
  0.00000000E+00  0.00000000E+00  0.00000000E+00
  0.00000000E+00  0.00000000E+00  0.00000000E+00
  0.00000000E+00  0.00000000E+00  0.00000000E+00
  0.00000000E+00  0.00000000E+00  0.00000000E+00
  0.00000000E+00  0.00000000E+00  0.00000000E+00
  0.00000000E+00  0.00000000E+00  0.00000000E+00
  0.00000000E+00  0.00000000E+00  0.00000000E+00
  0.00000000E+00  0.00000000E+00  0.00000000E+00
  0.00000000E+00  0.00000000E+00  0.00000000E+00
  0.00000000E+00  0.00000000E+00  0.00000000E+00
