#2 (P -1)                               
   5.18493000107588     
     0.9971090586281081   -0.0013874382690013    0.0008890654759318
     0.4919050266790498    0.8745463146017740    0.0017419572017524
     0.0097097777448588    0.0194562235181934    1.2301860609223285
   Co   Fe   Ta
     3     6     3
Direct
  0.1700681072113412  0.1626757185263056  0.3319481428004394
  0.8299318927886589  0.8373242814736945  0.6680518571995605
 -0.0000000000000000  0.0000000000000000 -0.0000000000000000
  0.5000000000000000  0.5000000000000000 -0.0000000000000000
  0.5000000000000000  0.0000000000000000 -0.0000000000000000
  0.8306891590935367  0.3344711701764714  0.6672965941711805
  0.1693108409064634  0.6655288298235286  0.3327034058288195
  0.3288042023678637  0.3362640545868515  0.6638454759147669
  0.6711957976321363  0.6637359454131485  0.3361545240852331
  0.6725348045533425  0.1618555017616948  0.3321789227252583
  0.3274651954466574  0.8381444982383053  0.6678210772747418
 -0.0000000000000000  0.5000000000000000 -0.0000000000000000
 
  0.00000000E+00  0.00000000E+00  0.00000000E+00
  0.00000000E+00  0.00000000E+00  0.00000000E+00
  0.00000000E+00  0.00000000E+00  0.00000000E+00
  0.00000000E+00  0.00000000E+00  0.00000000E+00
  0.00000000E+00  0.00000000E+00  0.00000000E+00
  0.00000000E+00  0.00000000E+00  0.00000000E+00
  0.00000000E+00  0.00000000E+00  0.00000000E+00
  0.00000000E+00  0.00000000E+00  0.00000000E+00
  0.00000000E+00  0.00000000E+00  0.00000000E+00
  0.00000000E+00  0.00000000E+00  0.00000000E+00
  0.00000000E+00  0.00000000E+00  0.00000000E+00
  0.00000000E+00  0.00000000E+00  0.00000000E+00
