#71-I2/m2/m2/m                          
  0.999999999147330     
     4.8700121217897978    0.0000000000000000    0.0000000000000000
     0.0000000000000000    3.8808242939307154    0.0000000000000000
     0.0000000000000000    0.0000000000000000    8.1632979526398675
   Fe   Sc
     6     4
Direct
  0.2389083618136922  0.0000000000000000  0.0000000000000000
  0.7610916381863078  0.0000000000000000  0.0000000000000000
  0.7389083618136922  0.5000000000000000  0.5000000000000000
  0.2610916381863078  0.5000000000000000  0.5000000000000000
  0.5000000000000000  0.5000000000000000  0.0000000000000000
  0.0000000000000000  0.0000000000000000  0.5000000000000000
  0.5000000000000000  0.0000000000000000  0.6995276944887081
  0.5000000000000000  0.0000000000000000  0.3004723055112919
  0.0000000000000000  0.5000000000000000  0.1995276944887081
  0.0000000000000000  0.5000000000000000  0.8004723055112919
 
  0.00000000E+00  0.00000000E+00  0.00000000E+00
  0.00000000E+00  0.00000000E+00  0.00000000E+00
  0.00000000E+00  0.00000000E+00  0.00000000E+00
  0.00000000E+00  0.00000000E+00  0.00000000E+00
  0.00000000E+00  0.00000000E+00  0.00000000E+00
  0.00000000E+00  0.00000000E+00  0.00000000E+00
  0.00000000E+00  0.00000000E+00  0.00000000E+00
  0.00000000E+00  0.00000000E+00  0.00000000E+00
  0.00000000E+00  0.00000000E+00  0.00000000E+00
  0.00000000E+00  0.00000000E+00  0.00000000E+00
