#64-C2/m2/c21/a                         
   1.00000000018918     
     4.8857527440009303    0.0000000000000000    0.0000000000000000
     0.0000000000000000    9.0257398303437597    0.0000000000000000
     0.0000000000000000    0.0000000000000000    7.0907154035784901
   Fe   Sc
    12     8
Direct
  0.5000000000000000  0.0000000000000000  0.0000000000000000
  0.0000000000000000  0.0000000000000000  0.5000000000000000
  0.0000000000000000  0.5000000000000000  0.0000000000000000
  0.5000000000000000  0.5000000000000000  0.5000000000000000
  0.2500000000000000  0.5916076932813965  0.2500000000000000
  0.2500000000000000  0.4083923067186035  0.7500000000000000
  0.7500000000000000  0.4083923067186035  0.7500000000000000
  0.7500000000000000  0.5916076932813965  0.2500000000000000
  0.7500000000000000  0.0916076932813965  0.2500000000000000
  0.7500000000000000  0.9083923067186035  0.7500000000000000
  0.2500000000000000  0.9083923067186035  0.7500000000000000
  0.2500000000000000  0.0916076932813965  0.2500000000000000
  0.0000000000000000  0.6596717174924294  0.5981810513368586
  0.0000000000000000  0.3403282825075706  0.4018189486631414
  0.5000000000000000  0.6596717174924294  0.9018189486631414
  0.5000000000000000  0.3403282825075706  0.0981810513368586
  0.5000000000000000  0.1596717174924294  0.5981810513368586
  0.5000000000000000  0.8403282825075706  0.4018189486631414
  0.0000000000000000  0.1596717174924294  0.9018189486631414
  0.0000000000000000  0.8403282825075706  0.0981810513368586
 
  0.00000000E+00  0.00000000E+00  0.00000000E+00
  0.00000000E+00  0.00000000E+00  0.00000000E+00
  0.00000000E+00  0.00000000E+00  0.00000000E+00
  0.00000000E+00  0.00000000E+00  0.00000000E+00
  0.00000000E+00  0.00000000E+00  0.00000000E+00
  0.00000000E+00  0.00000000E+00  0.00000000E+00
  0.00000000E+00  0.00000000E+00  0.00000000E+00
  0.00000000E+00  0.00000000E+00  0.00000000E+00
  0.00000000E+00  0.00000000E+00  0.00000000E+00
  0.00000000E+00  0.00000000E+00  0.00000000E+00
  0.00000000E+00  0.00000000E+00  0.00000000E+00
  0.00000000E+00  0.00000000E+00  0.00000000E+00
  0.00000000E+00  0.00000000E+00  0.00000000E+00
  0.00000000E+00  0.00000000E+00  0.00000000E+00
  0.00000000E+00  0.00000000E+00  0.00000000E+00
  0.00000000E+00  0.00000000E+00  0.00000000E+00
  0.00000000E+00  0.00000000E+00  0.00000000E+00
  0.00000000E+00  0.00000000E+00  0.00000000E+00
  0.00000000E+00  0.00000000E+00  0.00000000E+00
  0.00000000E+00  0.00000000E+00  0.00000000E+00
