#15-C12/c1                              
   1.00000000009491     
     8.9016797224904991    0.0000000000000000    0.0066174413084706
     0.0000000000000000    5.1593551255154262    0.0000000000000000
    -1.7612189807361391    0.0000000000000000    6.7713222874363375
   Fe   Sc
    12     8
Direct
  0.0000000000000000  0.3429273223817759  0.2500000000000000
  0.0000000000000000  0.6570726776182241  0.7500000000000000
  0.5000000000000000  0.8429273223817759  0.2500000000000000
  0.5000000000000000  0.1570726776182241  0.7500000000000000
  0.6267051770680041  0.1332338282299688  0.4932218285738230
  0.3732948229319959  0.1332338282299688  0.0067781714261770
  0.3732948229319959  0.8667661717700241  0.5067781714261770
  0.6267051770680041  0.8667661717700241  0.9932218285738230
  0.1267051770680041  0.6332338282299759  0.4932218285738230
  0.8732948229319959  0.6332338282299759  0.0067781714261770
  0.8732948229319959  0.3667661717700241  0.5067781714261770
  0.1267051770680041  0.3667661717700241  0.9932218285738230
  0.1512943622784917  0.1308099781161047  0.6479000076994126
  0.8487056377215083  0.1308099781161047  0.8520999923005874
  0.8487056377215083  0.8691900218838953  0.3520999923005874
  0.1512943622784917  0.8691900218838953  0.1479000076994126
  0.6512943622784917  0.6308099781161047  0.6479000076994126
  0.3487056377215083  0.6308099781161047  0.8520999923005874
  0.3487056377215083  0.3691900218838953  0.3520999923005874
  0.6512943622784917  0.3691900218838953  0.1479000076994126
 
  0.00000000E+00  0.00000000E+00  0.00000000E+00
  0.00000000E+00  0.00000000E+00  0.00000000E+00
  0.00000000E+00  0.00000000E+00  0.00000000E+00
  0.00000000E+00  0.00000000E+00  0.00000000E+00
  0.00000000E+00  0.00000000E+00  0.00000000E+00
  0.00000000E+00  0.00000000E+00  0.00000000E+00
  0.00000000E+00  0.00000000E+00  0.00000000E+00
  0.00000000E+00  0.00000000E+00  0.00000000E+00
  0.00000000E+00  0.00000000E+00  0.00000000E+00
  0.00000000E+00  0.00000000E+00  0.00000000E+00
  0.00000000E+00  0.00000000E+00  0.00000000E+00
  0.00000000E+00  0.00000000E+00  0.00000000E+00
  0.00000000E+00  0.00000000E+00  0.00000000E+00
  0.00000000E+00  0.00000000E+00  0.00000000E+00
  0.00000000E+00  0.00000000E+00  0.00000000E+00
  0.00000000E+00  0.00000000E+00  0.00000000E+00
  0.00000000E+00  0.00000000E+00  0.00000000E+00
  0.00000000E+00  0.00000000E+00  0.00000000E+00
  0.00000000E+00  0.00000000E+00  0.00000000E+00
  0.00000000E+00  0.00000000E+00  0.00000000E+00
