#5-C121                                 
  0.999999999474980     
     8.8967148274642014    0.0000000000000000   -0.0007876595346679
     0.0000000000000000    5.1584982873866281    0.0000000000000000
    -1.7569474768611546    0.0000000000000000    6.7750688220465829
   Fe   Sc
    12     8
Direct
  0.0000000000000000  0.7765161924508988  0.0000000000000000
  0.5000000000000000  0.2765161924508988  0.0000000000000000
  0.6260859585436620  0.2966687695943548  0.7423539436073199
  0.3739140414563380  0.2966687695943548  0.2576460563926801
  0.1260859585436620  0.7966687695943548  0.7423539436073199
  0.8739140414563380  0.7966687695943548  0.2576460563926801
  0.8724549516866773  0.0629816376169288  0.7554957970100205
  0.1275450483133227  0.0629816376169288  0.2445042029899867
  0.3724549516866773  0.5629816376169288  0.7554957970100205
  0.6275450483133227  0.5629816376169288  0.2445042029899867
  0.0000000000000000  0.0890639600650189  0.5000000000000000
  0.5000000000000000  0.5890639600650260  0.5000000000000000
  0.8490274785974208  0.2993588468240986  0.1015316937250432
  0.1509725214025792  0.2993588468240986  0.8984683062749568
  0.3490274785974208  0.7993588468240986  0.1015316937250432
  0.6509725214025792  0.7993588468240986  0.8984683062749568
  0.6514470391937337  0.0607156697066671  0.3972581804548909
  0.3485529608062663  0.0607156697066671  0.6027418195451091
  0.1514470391937337  0.5607156697066671  0.3972581804548909
  0.8485529608062663  0.5607156697066671  0.6027418195451091
 
  0.00000000E+00  0.00000000E+00  0.00000000E+00
  0.00000000E+00  0.00000000E+00  0.00000000E+00
  0.00000000E+00  0.00000000E+00  0.00000000E+00
  0.00000000E+00  0.00000000E+00  0.00000000E+00
  0.00000000E+00  0.00000000E+00  0.00000000E+00
  0.00000000E+00  0.00000000E+00  0.00000000E+00
  0.00000000E+00  0.00000000E+00  0.00000000E+00
  0.00000000E+00  0.00000000E+00  0.00000000E+00
  0.00000000E+00  0.00000000E+00  0.00000000E+00
  0.00000000E+00  0.00000000E+00  0.00000000E+00
  0.00000000E+00  0.00000000E+00  0.00000000E+00
  0.00000000E+00  0.00000000E+00  0.00000000E+00
  0.00000000E+00  0.00000000E+00  0.00000000E+00
  0.00000000E+00  0.00000000E+00  0.00000000E+00
  0.00000000E+00  0.00000000E+00  0.00000000E+00
  0.00000000E+00  0.00000000E+00  0.00000000E+00
  0.00000000E+00  0.00000000E+00  0.00000000E+00
  0.00000000E+00  0.00000000E+00  0.00000000E+00
  0.00000000E+00  0.00000000E+00  0.00000000E+00
  0.00000000E+00  0.00000000E+00  0.00000000E+00
