#12-C12/m1                              
   1.00000000024016     
     6.3996818081566866    0.0000000000000000   -0.0018134476353417
     0.0000000000000000    8.5527426598506757    0.0000000000000000
    -3.0925226034202025    0.0000000000000000    5.5957715753651467
   Fe   Sc
    12     8
Direct
  0.2434984646338734  0.0000000000000000  0.4147400484469159
  0.7565015353661266  0.0000000000000000  0.5852599515530841
  0.7434984646338734  0.5000000000000000  0.4147400484469159
  0.2565015353661266  0.5000000000000000  0.5852599515530841
  0.5775162253573356  0.0000000000000000  0.8339096074879251
  0.4224837746426644  0.0000000000000000  0.1660903925120749
  0.0775162253573356  0.5000000000000000  0.8339096074879251
  0.9224837746426644  0.5000000000000000  0.1660903925120749
  0.1760942981217610  0.0000000000000000  0.7605543791231995
  0.8239057018782390  0.0000000000000000  0.2394456208768005
  0.6760942981217610  0.5000000000000000  0.7605543791231995
  0.3239057018782390  0.5000000000000000  0.2394456208768005
  0.0000000000000000  0.1989574276732782  0.0000000000000000
  0.0000000000000000  0.8010425723267218  0.0000000000000000
  0.5000000000000000  0.6989574276732782  0.0000000000000000
  0.5000000000000000  0.3010425723267218  0.0000000000000000
  0.0000000000000000  0.2508159326510437  0.5000000000000000
  0.0000000000000000  0.7491840673489563  0.5000000000000000
  0.5000000000000000  0.7508159326510437  0.5000000000000000
  0.5000000000000000  0.2491840673489563  0.5000000000000000
 
  0.00000000E+00  0.00000000E+00  0.00000000E+00
  0.00000000E+00  0.00000000E+00  0.00000000E+00
  0.00000000E+00  0.00000000E+00  0.00000000E+00
  0.00000000E+00  0.00000000E+00  0.00000000E+00
  0.00000000E+00  0.00000000E+00  0.00000000E+00
  0.00000000E+00  0.00000000E+00  0.00000000E+00
  0.00000000E+00  0.00000000E+00  0.00000000E+00
  0.00000000E+00  0.00000000E+00  0.00000000E+00
  0.00000000E+00  0.00000000E+00  0.00000000E+00
  0.00000000E+00  0.00000000E+00  0.00000000E+00
  0.00000000E+00  0.00000000E+00  0.00000000E+00
  0.00000000E+00  0.00000000E+00  0.00000000E+00
  0.00000000E+00  0.00000000E+00  0.00000000E+00
  0.00000000E+00  0.00000000E+00  0.00000000E+00
  0.00000000E+00  0.00000000E+00  0.00000000E+00
  0.00000000E+00  0.00000000E+00  0.00000000E+00
  0.00000000E+00  0.00000000E+00  0.00000000E+00
  0.00000000E+00  0.00000000E+00  0.00000000E+00
  0.00000000E+00  0.00000000E+00  0.00000000E+00
  0.00000000E+00  0.00000000E+00  0.00000000E+00
