#160-R3m(hexagonalaxes)                 
   1.00000000023017     
     3.9975448980268196    0.0000000000000000    0.0000000000000000
    -1.9987724490134098    3.4619754344601001   -0.0000000000000000
     0.0000000000000000   -0.0000000000000000   17.9197724983434590
   Fe   Sb
    15     3
Direct
 -0.0000000000000000 -0.0000000000000000  0.4293086279954660
  0.3333330000000032  0.6666669999999968  0.0959756279954629
  0.6666669999999968  0.3333330000000032  0.7626416279954691
  0.0000000000000000 -0.0000000000000000  0.1338943664443160
  0.3333330000000032  0.6666669999999968  0.8005613664443199
  0.6666669999999968  0.3333330000000032  0.4672273664443192
 -0.0000000000000000  0.0000000000000000  0.7120909346016964
  0.3333330000000032  0.6666669999999968  0.3787579346016933
  0.6666669999999968  0.3333330000000032  0.0454239346016997
  0.0000000000000000  0.0000000000000000  0.0044070202471138
  0.3333330000000032  0.6666669999999968  0.6710740202471176
  0.6666669999999968  0.3333330000000032  0.3377400202471170
  0.0000000000000000 -0.0000000000000000  0.8512469291628193
  0.3333330000000032  0.6666669999999968  0.5179139291628232
  0.6666669999999968  0.3333330000000032  0.1845799291628225
  0.0000000000000000 -0.0000000000000000  0.2747121215485788
  0.3333330000000032  0.6666669999999968  0.9413791215485827
  0.6666669999999968  0.3333330000000032  0.6080451215485820
 
  0.00000000E+00  0.00000000E+00  0.00000000E+00
  0.00000000E+00  0.00000000E+00  0.00000000E+00
  0.00000000E+00  0.00000000E+00  0.00000000E+00
  0.00000000E+00  0.00000000E+00  0.00000000E+00
  0.00000000E+00  0.00000000E+00  0.00000000E+00
  0.00000000E+00  0.00000000E+00  0.00000000E+00
  0.00000000E+00  0.00000000E+00  0.00000000E+00
  0.00000000E+00  0.00000000E+00  0.00000000E+00
  0.00000000E+00  0.00000000E+00  0.00000000E+00
  0.00000000E+00  0.00000000E+00  0.00000000E+00
  0.00000000E+00  0.00000000E+00  0.00000000E+00
  0.00000000E+00  0.00000000E+00  0.00000000E+00
  0.00000000E+00  0.00000000E+00  0.00000000E+00
  0.00000000E+00  0.00000000E+00  0.00000000E+00
  0.00000000E+00  0.00000000E+00  0.00000000E+00
  0.00000000E+00  0.00000000E+00  0.00000000E+00
  0.00000000E+00  0.00000000E+00  0.00000000E+00
  0.00000000E+00  0.00000000E+00  0.00000000E+00
