#12-C12/m1                              
   1.00000000003159     
     9.0229702337510176    0.0000000000000000    0.0080035953558690
     0.0000000000000000    3.1274931324933810    0.0000000000000000
    -1.8552491808236329    0.0000000000000000    5.5068151571438122
   Fe   Sb
    10     2
Direct
  0.3257535819218369  0.0000000000000000  0.6773418926507839
  0.6742464180781631  0.0000000000000000  0.3226581073492160
  0.8257535819218369  0.5000000000000000  0.6773418926507839
  0.1742464180781631  0.5000000000000000  0.3226581073492160
  0.6730007611583364 -0.0000000000000000  0.8499279630096521
  0.3269992388416635  0.0000000000000000  0.1500720369903479
  0.1730007611583364  0.5000000000000000  0.8499279630096521
  0.8269992388416636  0.5000000000000000  0.1500720369903479
  0.0000000000000000  0.0000000000000000  0.0000000000000000
  0.5000000000000000  0.5000000000000000  0.0000000000000000
  0.0000000000000000  0.0000000000000000  0.5000000000000000
  0.5000000000000000  0.5000000000000000  0.5000000000000000
 
  0.00000000E+00  0.00000000E+00  0.00000000E+00
  0.00000000E+00  0.00000000E+00  0.00000000E+00
  0.00000000E+00  0.00000000E+00  0.00000000E+00
  0.00000000E+00  0.00000000E+00  0.00000000E+00
  0.00000000E+00  0.00000000E+00  0.00000000E+00
  0.00000000E+00  0.00000000E+00  0.00000000E+00
  0.00000000E+00  0.00000000E+00  0.00000000E+00
  0.00000000E+00  0.00000000E+00  0.00000000E+00
  0.00000000E+00  0.00000000E+00  0.00000000E+00
  0.00000000E+00  0.00000000E+00  0.00000000E+00
  0.00000000E+00  0.00000000E+00  0.00000000E+00
  0.00000000E+00  0.00000000E+00  0.00000000E+00
