#164-P-32/m1                            
  0.999999999302456     
     4.1371980082948685    0.0000000000000000   -0.0000000000000000
    -2.0685990041474343    3.5829185756697393   -0.0000000000000000
    -0.0000000000000000    0.0000000000000000    5.1879353774166708
   Fe   Sb
     5     1
Direct
  0.3333299999999966  0.6666700000000034  0.8058061002159498
  0.6666600000000003  0.3333299999999966  0.1941938997840503
  0.3333299999999966  0.6666700000000034  0.3383560750896216
  0.6666600000000003  0.3333299999999966  0.6616439249103784
 -0.0000000000000000  0.0000000000000000  0.5000000000000000
  0.0000000000000000  0.0000000000000000 -0.0000000000000000
 
  0.00000000E+00  0.00000000E+00  0.00000000E+00
  0.00000000E+00  0.00000000E+00  0.00000000E+00
  0.00000000E+00  0.00000000E+00  0.00000000E+00
  0.00000000E+00  0.00000000E+00  0.00000000E+00
  0.00000000E+00  0.00000000E+00  0.00000000E+00
  0.00000000E+00  0.00000000E+00  0.00000000E+00
