#65-C2/m2/m2/m                          
  0.999999999593288     
     3.1808377137157540    0.0000000000000000    0.0000000000000000
     0.0000000000000000   12.0917711556626557    0.0000000000000000
     0.0000000000000000    0.0000000000000000    4.0657768696048393
   Fe   Sb
    10     2
Direct
  0.0000000000000000  0.3238321052176900  0.5000000000000000
  0.0000000000000000  0.6761678947823100  0.5000000000000000
  0.5000000000000000  0.8238321052176900  0.5000000000000000
  0.5000000000000000  0.1761678947823100  0.5000000000000000
  0.0000000000000000  0.1683888283973900  0.0000000000000000
  0.0000000000000000  0.8316111716026100  0.0000000000000000
  0.5000000000000000  0.6683888283973900  0.0000000000000000
  0.5000000000000000  0.3316111716026100  0.0000000000000000
  0.5000000000000000  0.0000000000000000  0.0000000000000000
  0.0000000000000000  0.5000000000000000  0.0000000000000000
  0.0000000000000000  0.0000000000000000  0.5000000000000000
  0.5000000000000000  0.5000000000000000  0.5000000000000000
 
  0.00000000E+00  0.00000000E+00  0.00000000E+00
  0.00000000E+00  0.00000000E+00  0.00000000E+00
  0.00000000E+00  0.00000000E+00  0.00000000E+00
  0.00000000E+00  0.00000000E+00  0.00000000E+00
  0.00000000E+00  0.00000000E+00  0.00000000E+00
  0.00000000E+00  0.00000000E+00  0.00000000E+00
  0.00000000E+00  0.00000000E+00  0.00000000E+00
  0.00000000E+00  0.00000000E+00  0.00000000E+00
  0.00000000E+00  0.00000000E+00  0.00000000E+00
  0.00000000E+00  0.00000000E+00  0.00000000E+00
  0.00000000E+00  0.00000000E+00  0.00000000E+00
  0.00000000E+00  0.00000000E+00  0.00000000E+00
