#65-C2/m2/m2/m                          
   1.00000000076679     
     9.0438652214923803    0.0000000000000000    0.0000000000000000
     0.0000000000000000    4.1224857456728712    0.0000000000000000
     0.0000000000000000    0.0000000000000000    4.1077179892821789
   Fe   Sb
    10     2
Direct
  0.1756053496266265 -0.0000000000000000  0.5000000000000000
  0.8243946503733734  0.0000000000000000  0.5000000000000000
  0.6756053496266266  0.5000000000000000  0.5000000000000000
  0.3243946503733736  0.5000000000000000  0.5000000000000000
  0.6764573520521038 -0.0000000000000000 -0.0000000000000000
  0.3235426479478964 -0.0000000000000000  0.0000000000000000
  0.1764573520521036  0.5000000000000000  0.0000000000000000
  0.8235426479478962  0.5000000000000000 -0.0000000000000000
  0.0000000000000000 -0.0000000000000000 -0.0000000000000000
  0.5000000000000000  0.5000000000000000 -0.0000000000000000
  0.5000000000000000 -0.0000000000000000  0.5000000000000000
  0.0000000000000000  0.5000000000000000  0.5000000000000000
 
  0.00000000E+00  0.00000000E+00  0.00000000E+00
  0.00000000E+00  0.00000000E+00  0.00000000E+00
  0.00000000E+00  0.00000000E+00  0.00000000E+00
  0.00000000E+00  0.00000000E+00  0.00000000E+00
  0.00000000E+00  0.00000000E+00  0.00000000E+00
  0.00000000E+00  0.00000000E+00  0.00000000E+00
  0.00000000E+00  0.00000000E+00  0.00000000E+00
  0.00000000E+00  0.00000000E+00  0.00000000E+00
  0.00000000E+00  0.00000000E+00  0.00000000E+00
  0.00000000E+00  0.00000000E+00  0.00000000E+00
  0.00000000E+00  0.00000000E+00  0.00000000E+00
  0.00000000E+00  0.00000000E+00  0.00000000E+00
