#65-C2/m2/m2/m                          
   1.00000000011629     
     4.0449389578277772    0.0000000000000000   -0.0000000000000000
     0.0000000000000000   12.0799558686242872    0.0000000000000000
     0.0000000000000000    0.0000000000000000    3.1817990064603916
   Fe   Sb
    10     2
Direct
 -0.0000000000000000  0.0000000000000000  0.5000000000000000
  0.5000000000000000  0.5000000000000000  0.5000000000000000
 -0.0000000000000000  0.1680777199082888 -0.0000000000000000
  0.0000000000000000  0.8319222800917112 -0.0000000000000000
  0.5000000000000000  0.6680777199082888 -0.0000000000000000
  0.5000000000000000  0.3319222800917112 -0.0000000000000000
 -0.0000000000000000  0.6759196965241873  0.5000000000000000
 -0.0000000000000000  0.3240803034758125  0.5000000000000000
  0.5000000000000000  0.1759196965241874  0.5000000000000000
  0.5000000000000000  0.8240803034758127  0.5000000000000000
  0.5000000000000000  0.0000000000000000  0.0000000000000000
 -0.0000000000000000  0.5000000000000000  0.0000000000000000
 
  0.00000000E+00  0.00000000E+00  0.00000000E+00
  0.00000000E+00  0.00000000E+00  0.00000000E+00
  0.00000000E+00  0.00000000E+00  0.00000000E+00
  0.00000000E+00  0.00000000E+00  0.00000000E+00
  0.00000000E+00  0.00000000E+00  0.00000000E+00
  0.00000000E+00  0.00000000E+00  0.00000000E+00
  0.00000000E+00  0.00000000E+00  0.00000000E+00
  0.00000000E+00  0.00000000E+00  0.00000000E+00
  0.00000000E+00  0.00000000E+00  0.00000000E+00
  0.00000000E+00  0.00000000E+00  0.00000000E+00
  0.00000000E+00  0.00000000E+00  0.00000000E+00
  0.00000000E+00  0.00000000E+00  0.00000000E+00
