#12-C12/m1                              
   1.00000000078408     
     8.8302862058977869    0.0000000000000000    0.0091396057105286
     0.0000000000000000    4.1321765550398775    0.0000000000000000
    -2.9191495176157720    0.0000000000000000    4.2422417617554506
   Fe   Sb
    10     2
Direct
  0.3437822364700331 -0.0000000000000000  0.6707332606935205
  0.6562177635299669  0.0000000000000000  0.3292667393064795
  0.8437822364700331  0.5000000000000000  0.6707332606935205
  0.1562177635299668  0.5000000000000000  0.3292667393064795
  0.6772094011337950  0.0000000000000000  0.8550950293177860
  0.3227905988662050  0.0000000000000000  0.1449049706822140
  0.1772094011337950  0.5000000000000000  0.8550950293177860
  0.8227905988662050  0.5000000000000000  0.1449049706822140
 -0.0000000000000000 -0.0000000000000000  0.0000000000000000
  0.5000000000000000  0.5000000000000000  0.0000000000000000
 -0.0000000000000000 -0.0000000000000000  0.5000000000000000
  0.5000000000000000  0.5000000000000000  0.5000000000000000
 
  0.00000000E+00  0.00000000E+00  0.00000000E+00
  0.00000000E+00  0.00000000E+00  0.00000000E+00
  0.00000000E+00  0.00000000E+00  0.00000000E+00
  0.00000000E+00  0.00000000E+00  0.00000000E+00
  0.00000000E+00  0.00000000E+00  0.00000000E+00
  0.00000000E+00  0.00000000E+00  0.00000000E+00
  0.00000000E+00  0.00000000E+00  0.00000000E+00
  0.00000000E+00  0.00000000E+00  0.00000000E+00
  0.00000000E+00  0.00000000E+00  0.00000000E+00
  0.00000000E+00  0.00000000E+00  0.00000000E+00
  0.00000000E+00  0.00000000E+00  0.00000000E+00
  0.00000000E+00  0.00000000E+00  0.00000000E+00
