#12 (C 2/m) [unique axis c] cell choice 
   8.24391000071716     
     0.2675303583543348    0.0000000000000000   -1.2436642361243972
    -0.4996289649549206    0.3523214812760628    0.0000907389985178
     0.4996289649549206    0.3523214812760628   -0.0000907389985178
   Fe   Ta
    17     3
Direct
  0.1974486915659069  0.3022948844992415  0.6977051155007585
  0.8025513084340932  0.6977051155007585  0.3022948844992415
  0.8013254957209398  0.1971160215654446  0.8028839784345554
  0.1986745042790602  0.8028839784345554  0.1971160215654446
  0.8009263402911901  0.2098335605207150  0.3159345907071763
  0.1990736597088099  0.3159345907071763  0.2098335605207150
  0.1990736597088099  0.7901664394792920  0.6840654092928236
  0.8009263402911901  0.6840654092928236  0.7901664394792920
  0.3999661019774358  0.6021920286662277  0.3978079713337723
  0.6000338980225642  0.3978079713337723  0.6021920286662277
  0.3950629089117549  0.6026934556341439  0.8929774339561957
  0.6049370910882450  0.8929774339561957  0.6026934556341439
  0.6049370910882450  0.3973065443658561  0.1070225660438043
  0.3950629089117549  0.1070225660438043  0.3973065443658561
  0.0000000000000000  0.5000000000000000  0.5000000000000000
  0.0000000000000000  0.0000000000000000  0.5000000000000000
  0.0000000000000000  0.5000000000000000 -0.0000000000000000
  0.3974299165874334  0.1062331610604494  0.8937668389395507
  0.6025700834125736  0.8937668389395507  0.1062331610604494
  0.0000000000000000  0.0000000000000000 -0.0000000000000000
 
  0.00000000E+00  0.00000000E+00  0.00000000E+00
  0.00000000E+00  0.00000000E+00  0.00000000E+00
  0.00000000E+00  0.00000000E+00  0.00000000E+00
  0.00000000E+00  0.00000000E+00  0.00000000E+00
  0.00000000E+00  0.00000000E+00  0.00000000E+00
  0.00000000E+00  0.00000000E+00  0.00000000E+00
  0.00000000E+00  0.00000000E+00  0.00000000E+00
  0.00000000E+00  0.00000000E+00  0.00000000E+00
  0.00000000E+00  0.00000000E+00  0.00000000E+00
  0.00000000E+00  0.00000000E+00  0.00000000E+00
  0.00000000E+00  0.00000000E+00  0.00000000E+00
  0.00000000E+00  0.00000000E+00  0.00000000E+00
  0.00000000E+00  0.00000000E+00  0.00000000E+00
  0.00000000E+00  0.00000000E+00  0.00000000E+00
  0.00000000E+00  0.00000000E+00  0.00000000E+00
  0.00000000E+00  0.00000000E+00  0.00000000E+00
  0.00000000E+00  0.00000000E+00  0.00000000E+00
  0.00000000E+00  0.00000000E+00  0.00000000E+00
  0.00000000E+00  0.00000000E+00  0.00000000E+00
  0.00000000E+00  0.00000000E+00  0.00000000E+00
