#6 (P m) [unique axis c]                
   7.61141000069095     
     0.2885245454169820    0.0000000000000000   -1.0344196466999387
    -1.0003478106199988    0.0000000000000000    0.0002099322037373
     0.0000000000000000    0.5375162131625565    0.0000000000000000
   Fe   Ta
    17     3
Direct
  0.5011129154958954  0.0037591650310788  0.0000000000000000
  0.7484796345393223  0.0053970279019343  0.5000000000000000
  0.6945974592559822  0.8068632318492341  0.0000000000000000
  0.5982315786339236  0.3927371935781521  0.0000000000000000
  0.0516887221377490  0.2069266176823363  0.5000000000000000
  0.3059722753195313  0.2047995599903035  0.0000000000000000
  0.7964143914593528  0.2043865120996862  0.0000000000000000
  0.2545576870718854  0.0060668330431943  0.5000000000000000
  0.8473746270159341  0.3922109241392238  0.5000000000000000
  0.3999943590410792  0.6002676428421836  0.0000000000000000
  0.8992160821214681  0.5967644108662318  0.0000000000000000
  0.4537184993253666  0.8133206876819640  0.5000000000000000
  0.2091544521235145  0.8079748444421707  0.0000000000000000
  0.9497615294433311  0.8009716000195855  0.5000000000000000
  0.3480207145026387  0.3914977599176278  0.5000000000000000
  0.0983266696252168  0.3949969144143770  0.0000000000000000
  0.5498470553718592  0.1992692175931086  0.5000000000000000
  0.1528859710959723  0.6035802666134392  0.5000000000000000
  0.6482011012223026  0.6008398989001522  0.5000000000000000
  0.0000442751976928  0.0001796913940281  0.0000000000000000
 
  0.00000000E+00  0.00000000E+00  0.00000000E+00
  0.00000000E+00  0.00000000E+00  0.00000000E+00
  0.00000000E+00  0.00000000E+00  0.00000000E+00
  0.00000000E+00  0.00000000E+00  0.00000000E+00
  0.00000000E+00  0.00000000E+00  0.00000000E+00
  0.00000000E+00  0.00000000E+00  0.00000000E+00
  0.00000000E+00  0.00000000E+00  0.00000000E+00
  0.00000000E+00  0.00000000E+00  0.00000000E+00
  0.00000000E+00  0.00000000E+00  0.00000000E+00
  0.00000000E+00  0.00000000E+00  0.00000000E+00
  0.00000000E+00  0.00000000E+00  0.00000000E+00
  0.00000000E+00  0.00000000E+00  0.00000000E+00
  0.00000000E+00  0.00000000E+00  0.00000000E+00
  0.00000000E+00  0.00000000E+00  0.00000000E+00
  0.00000000E+00  0.00000000E+00  0.00000000E+00
  0.00000000E+00  0.00000000E+00  0.00000000E+00
  0.00000000E+00  0.00000000E+00  0.00000000E+00
  0.00000000E+00  0.00000000E+00  0.00000000E+00
  0.00000000E+00  0.00000000E+00  0.00000000E+00
  0.00000000E+00  0.00000000E+00  0.00000000E+00
