#10 (P 2/m) [unique axis c]             
   7.17759999866976     
     0.3038399374964752    0.0000000000000000   -1.1678483078839725
    -1.0014946757162468    0.0000000000000000   -0.0003899301988507
     0.0000000000000000    0.5677558768247191    0.0000000000000000
   Fe   Ta
    17     3
Direct
  0.0000000000000000  0.5000000000000000  0.5000000000000000
  0.2013863812436393  0.3989251350112886  0.0000000000000000
  0.7986136187563607  0.6010748649887114 -0.0000000000000000
  0.1063504641111141  0.2079696213736865  0.5000000000000000
  0.8936495358888860  0.7920303786263134  0.5000000000000000
  0.1972179367812892  0.8971518147540616  0.5000000000000000
  0.8027820632187108  0.1028481852459385  0.5000000000000000
  0.5990159648612237  0.6983302579080755  0.5000000000000000
  0.4009840351387763  0.3016697420919245  0.5000000000000000
  0.2937858744053976  0.5878901226502516  0.5000000000000000
  0.7062141255946024  0.4121098773497484  0.5000000000000000
  0.3019653725249470  0.1057898581641257  0.0000000000000000
  0.6980346274750530  0.8942101418358742 -0.0000000000000000
  0.9083223963033334  0.3107038629814300  0.0000000000000000
  0.0916776036966665  0.6892961370185700  0.0000000000000000
  0.5000000000000000  0.5000000000000000  0.0000000000000000
  0.5000000000000000  0.0000000000000000  0.5000000000000000
  0.6070738131565403  0.2060938198701488  0.0000000000000000
  0.3929261868434597  0.7939061801298511 -0.0000000000000000
  0.0000000000000000  0.0000000000000000  0.0000000000000000
 
  0.00000000E+00  0.00000000E+00  0.00000000E+00
  0.00000000E+00  0.00000000E+00  0.00000000E+00
  0.00000000E+00  0.00000000E+00  0.00000000E+00
  0.00000000E+00  0.00000000E+00  0.00000000E+00
  0.00000000E+00  0.00000000E+00  0.00000000E+00
  0.00000000E+00  0.00000000E+00  0.00000000E+00
  0.00000000E+00  0.00000000E+00  0.00000000E+00
  0.00000000E+00  0.00000000E+00  0.00000000E+00
  0.00000000E+00  0.00000000E+00  0.00000000E+00
  0.00000000E+00  0.00000000E+00  0.00000000E+00
  0.00000000E+00  0.00000000E+00  0.00000000E+00
  0.00000000E+00  0.00000000E+00  0.00000000E+00
  0.00000000E+00  0.00000000E+00  0.00000000E+00
  0.00000000E+00  0.00000000E+00  0.00000000E+00
  0.00000000E+00  0.00000000E+00  0.00000000E+00
  0.00000000E+00  0.00000000E+00  0.00000000E+00
  0.00000000E+00  0.00000000E+00  0.00000000E+00
  0.00000000E+00  0.00000000E+00  0.00000000E+00
  0.00000000E+00  0.00000000E+00  0.00000000E+00
  0.00000000E+00  0.00000000E+00  0.00000000E+00
