#2 (P -1)                               
   4.84627000016702     
     1.0015115800748446    0.0014091773468696   -0.0009743278872248
    -0.3626781458595724    1.1384181446745534    0.0002478928949139
    -0.0076962595866193   -0.0118851353381384    1.8907198308306046
   Fe   Ta
    17     3
Direct
 -0.0000000000000000  0.5000000000000000 -0.0000000000000000
  0.6032302757893889  0.9070985756629248  0.4004653952882551
  0.3967697242106110  0.0929014243370751  0.5995346047117448
  0.6040339985333051  0.3931088552881386  0.4028588758924228
  0.3959660014666949  0.6068911447118613  0.5971411241075771
  0.4052715785224428  0.8502707817296631  0.0987025596846817
  0.5947284214775573  0.1497292182703370  0.9012974403153182
  0.7865971621204717  0.1968791816421829  0.2020594958281742
  0.2134028378795285  0.8031208183578171  0.7979405041718258
  0.7923431366752188  0.6983367886357125  0.2036229910855208
  0.2076568633247812  0.3016632113642804  0.7963770089144790
  0.7983577887104281  0.9487485683195421  0.7000182695097210
  0.2016422112895720  0.0512514316804578  0.2999817304902790
  0.5896893820553846  0.6463982953191351  0.9023745437708329
  0.4103106179446157  0.3536017046808650  0.0976254562291672
  0.0045868437168515  0.2384431803883592  0.5015165114285784
  0.9954131562831484  0.7615568196116408  0.4984834885714215
  0.8018182742509877  0.4520763771548269  0.6989274374927822
  0.1981817257490121  0.5479236228451732  0.3010725625072178
 -0.0000000000000000  0.0000000000000000 -0.0000000000000000
 
  0.00000000E+00  0.00000000E+00  0.00000000E+00
  0.00000000E+00  0.00000000E+00  0.00000000E+00
  0.00000000E+00  0.00000000E+00  0.00000000E+00
  0.00000000E+00  0.00000000E+00  0.00000000E+00
  0.00000000E+00  0.00000000E+00  0.00000000E+00
  0.00000000E+00  0.00000000E+00  0.00000000E+00
  0.00000000E+00  0.00000000E+00  0.00000000E+00
  0.00000000E+00  0.00000000E+00  0.00000000E+00
  0.00000000E+00  0.00000000E+00  0.00000000E+00
  0.00000000E+00  0.00000000E+00  0.00000000E+00
  0.00000000E+00  0.00000000E+00  0.00000000E+00
  0.00000000E+00  0.00000000E+00  0.00000000E+00
  0.00000000E+00  0.00000000E+00  0.00000000E+00
  0.00000000E+00  0.00000000E+00  0.00000000E+00
  0.00000000E+00  0.00000000E+00  0.00000000E+00
  0.00000000E+00  0.00000000E+00  0.00000000E+00
  0.00000000E+00  0.00000000E+00  0.00000000E+00
  0.00000000E+00  0.00000000E+00  0.00000000E+00
  0.00000000E+00  0.00000000E+00  0.00000000E+00
  0.00000000E+00  0.00000000E+00  0.00000000E+00
