#6 (P m) [unique axis c]                
   7.10960000446519     
     0.3313992874510267    0.0000000000000000   -1.1796268805100991
    -1.0011777647432030    0.0000000000000000   -0.0001488657418333
     0.0000000000000000    0.5766716898969919    0.0000000000000000
   Fe   Ta
    17     3
Direct
  0.4042928129503606  0.8005072109727677  0.0000000000000000
  0.6033412182750164  0.7022678130427495  0.5000000000000000
  0.5079813715549375  0.5089922220778103  0.0000000000000000
  0.6023004462315960  0.1983909046227872  0.0000000000000000
  0.7953207343446340  0.0974942094952790  0.5000000000000000
  0.3045377264827701  0.0918833853680297  0.0000000000000000
  0.6955635766882007  0.8986779728566038  0.0000000000000000
  0.2048295905164494  0.8986752756130887  0.5000000000000000
  0.7015518485036164  0.3997022591615096  0.5000000000000000
  0.2058871600932727  0.4033788527734911  0.0000000000000000
  0.7984172434460538  0.5998748169806104  0.0000000000000000
  0.3078863144584866  0.6094467349548526  0.5000000000000000
  0.1106237876472913  0.7021620690360736  0.0000000000000000
  0.8939061612409799  0.7974194337123011  0.5000000000000000
  0.1016733117914647  0.2002804307041683  0.5000000000000000
  0.8926987327112580  0.2970839658947384  0.0000000000000000
  0.5036623955533445  0.9942015229274046  0.5000000000000000
  0.4028853437893214  0.3004644495916309  0.5000000000000000
  0.0027666767667915  0.5006034108875457  0.5000000000000000
  0.0001035469541277  0.9991030593265529  0.0000000000000000
 
  0.00000000E+00  0.00000000E+00  0.00000000E+00
  0.00000000E+00  0.00000000E+00  0.00000000E+00
  0.00000000E+00  0.00000000E+00  0.00000000E+00
  0.00000000E+00  0.00000000E+00  0.00000000E+00
  0.00000000E+00  0.00000000E+00  0.00000000E+00
  0.00000000E+00  0.00000000E+00  0.00000000E+00
  0.00000000E+00  0.00000000E+00  0.00000000E+00
  0.00000000E+00  0.00000000E+00  0.00000000E+00
  0.00000000E+00  0.00000000E+00  0.00000000E+00
  0.00000000E+00  0.00000000E+00  0.00000000E+00
  0.00000000E+00  0.00000000E+00  0.00000000E+00
  0.00000000E+00  0.00000000E+00  0.00000000E+00
  0.00000000E+00  0.00000000E+00  0.00000000E+00
  0.00000000E+00  0.00000000E+00  0.00000000E+00
  0.00000000E+00  0.00000000E+00  0.00000000E+00
  0.00000000E+00  0.00000000E+00  0.00000000E+00
  0.00000000E+00  0.00000000E+00  0.00000000E+00
  0.00000000E+00  0.00000000E+00  0.00000000E+00
  0.00000000E+00  0.00000000E+00  0.00000000E+00
  0.00000000E+00  0.00000000E+00  0.00000000E+00
