#1 (P 1)                                
   4.84682999674812     
     0.9978550319231794    0.0000994880772238    0.0011184372674035
    -0.0009768544989232    1.4685962264172505    0.0019336204781036
    -0.0975199562316657   -0.4943973397154549    1.4742310221259689
   Fe   Ta
    17     3
Direct
  0.7970146602606065  0.6055257267421199  0.8023066997993118
  0.9062319975249500  0.3012195874681518  0.8927234474108922
  0.4566510598231817  0.1521423860920173  0.9442568224715178
  0.2602078038260844  0.7453335327170021  0.7471702400586122
  0.5101527694955752  0.5032711212094662  0.5013547318938477
  0.1520613427239115  0.0410509100248970  0.6499315605073236
  0.3990361075125005  0.8018406037020234  0.4041076300271301
  0.7344503277526956  0.2425512980872536  0.2510893926241866
  0.3074204791482726  0.0923575627960440  0.3025258874122812
  0.9586000244503491  0.6584852811613350  0.4547613482830876
  0.1101053812306487  0.6953611861985187  0.1015150749794564
  0.5945043691853201  0.1934530674647238  0.6009373575284574
  0.5433666200792012  0.8525697878871574  0.0493742729223309
  0.6949836625380006  0.8981239332613492  0.6950320864278889
  0.1943903224747505  0.3944155499841987  0.2012821628549774
  0.3549321469877001  0.4494427670219690  0.8483704806627470
  0.8504204296251648  0.9473390016032697  0.3518724690850877
  0.6540330709763673  0.5481801331421636  0.1516797889319062
  0.0502488507797605  0.3482586691495598  0.5475805918385359
  0.0001685736049625 -0.0003321057132253 -0.0000720457195598
 
  0.00000000E+00  0.00000000E+00  0.00000000E+00
  0.00000000E+00  0.00000000E+00  0.00000000E+00
  0.00000000E+00  0.00000000E+00  0.00000000E+00
  0.00000000E+00  0.00000000E+00  0.00000000E+00
  0.00000000E+00  0.00000000E+00  0.00000000E+00
  0.00000000E+00  0.00000000E+00  0.00000000E+00
  0.00000000E+00  0.00000000E+00  0.00000000E+00
  0.00000000E+00  0.00000000E+00  0.00000000E+00
  0.00000000E+00  0.00000000E+00  0.00000000E+00
  0.00000000E+00  0.00000000E+00  0.00000000E+00
  0.00000000E+00  0.00000000E+00  0.00000000E+00
  0.00000000E+00  0.00000000E+00  0.00000000E+00
  0.00000000E+00  0.00000000E+00  0.00000000E+00
  0.00000000E+00  0.00000000E+00  0.00000000E+00
  0.00000000E+00  0.00000000E+00  0.00000000E+00
  0.00000000E+00  0.00000000E+00  0.00000000E+00
  0.00000000E+00  0.00000000E+00  0.00000000E+00
  0.00000000E+00  0.00000000E+00  0.00000000E+00
  0.00000000E+00  0.00000000E+00  0.00000000E+00
  0.00000000E+00  0.00000000E+00  0.00000000E+00
