#12 (C 2/m) [unique axis c] cell choice 
   5.06680999988119     
     0.1240293235615118    0.0000000000000000   -0.4907881573751992
    -0.4998336024755364    1.5639712051478243    0.0000851107854216
     0.4998336024755364    1.5639712051478243   -0.0000851107854216
   Fe   N 
     8     1
Direct
 -0.0000000000000000  0.8748995002613593  0.8748995002613593
 -0.0000000000000000  0.1251004997386407  0.1251004997386407
  0.5000000000000000 -0.0000000000000000  0.5000000000000000
  0.5000000000000000  0.5000000000000000  0.0000000000000000
 -0.0000000000000000  0.6301031238248255  0.6301031238248255
 -0.0000000000000000  0.3698968761751745  0.3698968761751745
  0.6112749617920383  0.2790778459335936  0.7209221540664065
  0.3887250382079617  0.7209221540664065  0.2790778459335936
 -0.0000000000000000 -0.0000000000000000  0.0000000000000000
 
  0.00000000E+00  0.00000000E+00  0.00000000E+00
  0.00000000E+00  0.00000000E+00  0.00000000E+00
  0.00000000E+00  0.00000000E+00  0.00000000E+00
  0.00000000E+00  0.00000000E+00  0.00000000E+00
  0.00000000E+00  0.00000000E+00  0.00000000E+00
  0.00000000E+00  0.00000000E+00  0.00000000E+00
  0.00000000E+00  0.00000000E+00  0.00000000E+00
  0.00000000E+00  0.00000000E+00  0.00000000E+00
  0.00000000E+00  0.00000000E+00  0.00000000E+00
