#65 (C m m m)                           
   6.30311999401672     
    -0.4996228401218210    0.6340087355025008    0.0000000000000000
    -0.4996228401218210   -0.6340087355025008    0.0000000000000000
     0.0000000000000000    0.0000000000000000    0.6326129317988548
   Fe   N 
     8     1
Direct
  0.7096576277106124  0.7096576277106124  0.0000000000000000
  0.2903423722893876  0.2903423722893876  0.0000000000000000
  0.7570426362290803  0.2429573637709197  0.0000000000000000
  0.2429573637709197  0.7570426362290803  0.0000000000000000
  0.0000000000000000  0.0000000000000000  0.5000000000000000
  0.5000000000000000  0.5000000000000000  0.5000000000000000
  0.0000000000000000  0.5000000000000000  0.5000000000000000
  0.5000000000000000  0.0000000000000000  0.5000000000000000
  0.0000000000000000  0.0000000000000000  0.0000000000000000
 
  0.00000000E+00  0.00000000E+00  0.00000000E+00
  0.00000000E+00  0.00000000E+00  0.00000000E+00
  0.00000000E+00  0.00000000E+00  0.00000000E+00
  0.00000000E+00  0.00000000E+00  0.00000000E+00
  0.00000000E+00  0.00000000E+00  0.00000000E+00
  0.00000000E+00  0.00000000E+00  0.00000000E+00
  0.00000000E+00  0.00000000E+00  0.00000000E+00
  0.00000000E+00  0.00000000E+00  0.00000000E+00
  0.00000000E+00  0.00000000E+00  0.00000000E+00
