#10 (P 2/m) [unique axis c]             
   5.06103000206194     
     0.2621410163043596    0.0000000000000000   -0.9759529122465410
    -0.9998729690706508    0.0000000000000000   -0.0001727612183849
     0.0000000000000000    0.7862238653974427    0.0000000000000000
   Fe   N 
     8     1
Direct
  0.0000000000000000 -0.0000000000000000  0.5000000000000000
  0.7167042721519643  0.1534689519324414 -0.0000000000000000
  0.2832957278480356  0.8465310480675586  0.0000000000000000
  0.4986553504289803  0.2559521349819091  0.5000000000000000
  0.5013446495710197  0.7440478650180909  0.5000000000000000
  0.7498088261469088  0.6366861068540487 -0.0000000000000000
  0.2501911738530911  0.3633138931459514 -0.0000000000000000
  0.0000000000000000  0.5000000000000000  0.5000000000000000
 -0.0000000000000000  0.0000000000000000 -0.0000000000000000
 
  0.00000000E+00  0.00000000E+00  0.00000000E+00
  0.00000000E+00  0.00000000E+00  0.00000000E+00
  0.00000000E+00  0.00000000E+00  0.00000000E+00
  0.00000000E+00  0.00000000E+00  0.00000000E+00
  0.00000000E+00  0.00000000E+00  0.00000000E+00
  0.00000000E+00  0.00000000E+00  0.00000000E+00
  0.00000000E+00  0.00000000E+00  0.00000000E+00
  0.00000000E+00  0.00000000E+00  0.00000000E+00
  0.00000000E+00  0.00000000E+00  0.00000000E+00
