#12 (C 2/m) [unique axis c] cell choice 
   7.47022000962388     
     0.4240834104222219    0.0000000000000000   -0.9025917173425784
    -0.4997978741737576    0.2650365841629174   -0.0000304825461473
     0.4997978741737576    0.2650365841629174    0.0000304825461473
   Fe   N 
     8     1
Direct
  0.1473138200912992  0.8588363591761666  0.1411636408238333
  0.8526861799087008  0.1411636408238333  0.8588363591761666
  0.0000000000000000  0.5000000000000000  0.5000000000000000
  0.3813150324055435  0.6209235882403588  0.3790764117596414
  0.6186849675944565  0.3790764117596414  0.6209235882403588
  0.7474735803679856  0.7619465382288556  0.2380534617711443
  0.2525264196320144  0.2380534617711443  0.7619465382288556
  0.5000000000000000  0.0000000000000000 -0.0000000000000000
  0.0000000000000000  0.0000000000000000 -0.0000000000000000
 
  0.00000000E+00  0.00000000E+00  0.00000000E+00
  0.00000000E+00  0.00000000E+00  0.00000000E+00
  0.00000000E+00  0.00000000E+00  0.00000000E+00
  0.00000000E+00  0.00000000E+00  0.00000000E+00
  0.00000000E+00  0.00000000E+00  0.00000000E+00
  0.00000000E+00  0.00000000E+00  0.00000000E+00
  0.00000000E+00  0.00000000E+00  0.00000000E+00
  0.00000000E+00  0.00000000E+00  0.00000000E+00
  0.00000000E+00  0.00000000E+00  0.00000000E+00
