#12 (C 2/m) [unique axis c] cell choice 
   5.08435999739114     
    -0.2436445092143457    0.0000000000000000    0.9669981465973321
     0.4997103398791343    0.7879562366781532   -0.0010670445105195
    -0.4997103398791343    0.7879562366781532    0.0010670445105195
   Fe   N 
     8     1
Direct
  0.7070386911292975  0.7088900410500879  0.2911099589499119
  0.2929613088707024  0.2911099589499119  0.7088900410500879
  0.2362664930982099  0.7494808315427560  0.2505191684572438
  0.7637335069017900  0.2505191684572438  0.7494808315427560
  0.5000000000000000  0.2453756256220094  0.2453756256220094
  0.5000000000000000  0.7546243743779907  0.7546243743779907
  0.0000000000000000  0.2449003438549520  0.2449003438549520
  0.0000000000000000  0.7550996561450479  0.7550996561450479
  0.0000000000000000  0.0000000000000000  0.0000000000000000
 
  0.00000000E+00  0.00000000E+00  0.00000000E+00
  0.00000000E+00  0.00000000E+00  0.00000000E+00
  0.00000000E+00  0.00000000E+00  0.00000000E+00
  0.00000000E+00  0.00000000E+00  0.00000000E+00
  0.00000000E+00  0.00000000E+00  0.00000000E+00
  0.00000000E+00  0.00000000E+00  0.00000000E+00
  0.00000000E+00  0.00000000E+00  0.00000000E+00
  0.00000000E+00  0.00000000E+00  0.00000000E+00
  0.00000000E+00  0.00000000E+00  0.00000000E+00
