#65 (C m m m)                           
   5.67059999644787     
     0.4998477687664070   -0.5553177968339816    0.0000000000000000
     0.4998477687664070    0.5553177968339816    0.0000000000000000
     0.0000000000000000    0.0000000000000000    0.9848201255565436
   Fe   N 
     8     1
Direct
  0.2635777274267671  0.7364222725732330  0.5000000000000000
  0.7364222725732330  0.2635777274267671  0.5000000000000000
  0.7123286552249909  0.2876713447750091  0.0000000000000000
  0.2876713447750091  0.7123286552249909  0.0000000000000000
  0.7598089928717006  0.7598089928717006  0.7466873509033235
  0.7598089928717006  0.7598089928717006  0.2533126490966764
  0.2401910071282994  0.2401910071282994  0.2533126490966764
  0.2401910071282994  0.2401910071282994  0.7466873509033235
  0.0000000000000000 -0.0000000000000000 -0.0000000000000000
 
  0.00000000E+00  0.00000000E+00  0.00000000E+00
  0.00000000E+00  0.00000000E+00  0.00000000E+00
  0.00000000E+00  0.00000000E+00  0.00000000E+00
  0.00000000E+00  0.00000000E+00  0.00000000E+00
  0.00000000E+00  0.00000000E+00  0.00000000E+00
  0.00000000E+00  0.00000000E+00  0.00000000E+00
  0.00000000E+00  0.00000000E+00  0.00000000E+00
  0.00000000E+00  0.00000000E+00  0.00000000E+00
  0.00000000E+00  0.00000000E+00  0.00000000E+00
