#2 (P -1)                               
   2.53827999859001     
     0.9962271561165379   -0.0002136855138217    0.0012265023044770
    -0.2435857272618872    1.8386510324371759   -0.0005653936165174
    -0.1900423410012691   -0.7753931579091655    3.2888079479004464
   Fe   N 
     8     1
Direct
  0.9831027517478376  0.7137251749697976  0.1301379797872698
  0.0168972482521625  0.2862748250302025  0.8698620202127301
  0.8401592013597885  0.0732202672547323  0.3801481264074109
  0.1598407986402115  0.9267797327452676  0.6198518735925891
  0.4366083601445730  0.7679326747587641  0.8569244374923642
  0.5633916398554271  0.2320673252412359  0.1430755625076358
  0.6586716972484363  0.4249240337568673  0.6221498655038380
  0.3413283027515637  0.5750759662431327  0.3778501344961621
  0.0000000000000000  0.0000000000000000  0.0000000000000000
 
  0.00000000E+00  0.00000000E+00  0.00000000E+00
  0.00000000E+00  0.00000000E+00  0.00000000E+00
  0.00000000E+00  0.00000000E+00  0.00000000E+00
  0.00000000E+00  0.00000000E+00  0.00000000E+00
  0.00000000E+00  0.00000000E+00  0.00000000E+00
  0.00000000E+00  0.00000000E+00  0.00000000E+00
  0.00000000E+00  0.00000000E+00  0.00000000E+00
  0.00000000E+00  0.00000000E+00  0.00000000E+00
  0.00000000E+00  0.00000000E+00  0.00000000E+00
