#6 (P m) [unique axis c]                
   4.08335999494740     
     0.3425654762506505    0.0000000000000000   -2.0990512763914575
    -0.9999768097638705    0.0000000000000000   -0.0000217782969380
     0.0000000000000000    0.6901510039068471    0.0000000000000000
   Fe   N 
     8     1
Direct
  0.6214826529066528  0.9392741289242391  0.0000000000000000
  0.6273449209603332  0.4407010887487480  0.5000000000000000
  0.3903063776256700  0.8585812504405630  0.5000000000000000
  0.8759540141600245  0.5201642361981241  0.0000000000000000
  0.1393574868362331  0.2768740969114337  0.5000000000000000
  0.8512032005950678  0.0141854466324224  0.5000000000000000
  0.1663772586635205  0.7738416146802976 -0.0000000000000000
  0.3878848228031059  0.3587272055359000 -0.0000000000000000
  0.9997992654493878  0.0012609319282809 -0.0000000000000000
 
  0.00000000E+00  0.00000000E+00  0.00000000E+00
  0.00000000E+00  0.00000000E+00  0.00000000E+00
  0.00000000E+00  0.00000000E+00  0.00000000E+00
  0.00000000E+00  0.00000000E+00  0.00000000E+00
  0.00000000E+00  0.00000000E+00  0.00000000E+00
  0.00000000E+00  0.00000000E+00  0.00000000E+00
  0.00000000E+00  0.00000000E+00  0.00000000E+00
  0.00000000E+00  0.00000000E+00  0.00000000E+00
  0.00000000E+00  0.00000000E+00  0.00000000E+00
