#12 (C 2/m) [unique axis c] cell choice 
   8.40138999478574     
     0.0432715611004149    0.0000000000000000   -0.4993093831987936
    -0.5004836116555901    0.3357752640021562   -0.0000644302476032
     0.5004836116555901    0.3357752640021562    0.0000644302476032
   Fe   N 
     8     1
Direct
  0.2408901057812701  0.8738040829486747  0.6329323942225700
  0.7591098942187299  0.6329323942225700  0.8738040829486747
  0.7591098942187299  0.1261959170513253  0.3670676057774302
  0.2408901057812701  0.3670676057774302  0.1261959170513253
  0.7375728827931066  0.6242563814094930  0.3757436185905070
  0.2624271172068932  0.3757436185905070  0.6242563814094930
  0.7160627033717746  0.1513638714939308  0.8486361285060692
  0.2839372966282254  0.8486361285060692  0.1513638714939308
  0.0000000000000000 -0.0000000000000000  0.0000000000000000
 
  0.00000000E+00  0.00000000E+00  0.00000000E+00
  0.00000000E+00  0.00000000E+00  0.00000000E+00
  0.00000000E+00  0.00000000E+00  0.00000000E+00
  0.00000000E+00  0.00000000E+00  0.00000000E+00
  0.00000000E+00  0.00000000E+00  0.00000000E+00
  0.00000000E+00  0.00000000E+00  0.00000000E+00
  0.00000000E+00  0.00000000E+00  0.00000000E+00
  0.00000000E+00  0.00000000E+00  0.00000000E+00
  0.00000000E+00  0.00000000E+00  0.00000000E+00
