#2 (P -1)                               
   2.53407000296831     
     1.0013884360382128    0.0001038905922656    0.0000482943288676
     0.3763496113663617    2.3993390294647052    0.0012003967538239
     0.1340861934541458    0.2826159242470573    2.5221919051381483
   Fe   N 
     8     1
Direct
  0.8873389365984140  0.8100513861279326  0.5588125997707390
  0.1126610634015861  0.1899486138720674  0.4411874002292610
  0.1251964619646065  0.6898266315577430  0.9393529048853426
  0.8748035380353935  0.3101733684422571  0.0606470951146573
  0.5213916613840108  0.9278126091530420  0.2146308091846034
  0.4786083386159890  0.0721873908469580  0.7853691908153968
  0.3641552459231187  0.5524648438376045  0.3144824343760966
  0.6358447540768813  0.4475351561623955  0.6855175656239032
  0.0000000000000000  0.0000000000000000 -0.0000000000000000
 
  0.00000000E+00  0.00000000E+00  0.00000000E+00
  0.00000000E+00  0.00000000E+00  0.00000000E+00
  0.00000000E+00  0.00000000E+00  0.00000000E+00
  0.00000000E+00  0.00000000E+00  0.00000000E+00
  0.00000000E+00  0.00000000E+00  0.00000000E+00
  0.00000000E+00  0.00000000E+00  0.00000000E+00
  0.00000000E+00  0.00000000E+00  0.00000000E+00
  0.00000000E+00  0.00000000E+00  0.00000000E+00
  0.00000000E+00  0.00000000E+00  0.00000000E+00
