#12 (C 2/m) [unique axis c] cell choice 
   17.0552300283758     
     0.0468777270934985    0.0000000000000000   -0.2409905832420311
    -0.4994543201326406    0.0830253844886335   -0.0000954867588393
     0.4994543201326406    0.0830253844886335    0.0000954867588393
   Fe   N 
     8     1
Direct
  0.9559506815474978  0.1899749979488805  0.8100250020511195
  0.0440493184525022  0.8100250020511195  0.1899749979488805
  0.4569507136042112  0.6900131082634532  0.3099868917365467
  0.5430492863957889  0.3099868917365467  0.6900131082634532
  0.3851419026001586  0.0728365535464630  0.9271634464535370
  0.6148580973998414  0.9271634464535370  0.0728365535464630
  0.8578010286189763  0.5660988353111640  0.4339011646888359
  0.1421989713810237  0.4339011646888359  0.5660988353111640
  0.0000000000000000  0.0000000000000000 -0.0000000000000000
 
  0.00000000E+00  0.00000000E+00  0.00000000E+00
  0.00000000E+00  0.00000000E+00  0.00000000E+00
  0.00000000E+00  0.00000000E+00  0.00000000E+00
  0.00000000E+00  0.00000000E+00  0.00000000E+00
  0.00000000E+00  0.00000000E+00  0.00000000E+00
  0.00000000E+00  0.00000000E+00  0.00000000E+00
  0.00000000E+00  0.00000000E+00  0.00000000E+00
  0.00000000E+00  0.00000000E+00  0.00000000E+00
  0.00000000E+00  0.00000000E+00  0.00000000E+00
