#123 (P 4/m m m)                        
   3.95307000208671     
     1.0008515309695478    0.0000000000000000    0.0000000000000000
     0.0000000000000000    1.0008515309695478    0.0000000000000000
     0.0000000000000000    0.0000000000000000    1.6167699534940465
   Fe   N 
     8     1
Direct
  0.0000000000000000  0.0000000000000000  0.7149699020040967
  0.0000000000000000  0.0000000000000000  0.2850300979959033
  0.5000000000000000  0.5000000000000000  0.2568358078088869
  0.5000000000000000  0.5000000000000000  0.7431641921911131
  0.0000000000000000  0.5000000000000000  0.0000000000000000
  0.5000000000000000  0.0000000000000000  0.0000000000000000
  0.0000000000000000  0.5000000000000000  0.5000000000000000
  0.5000000000000000 -0.0000000000000000  0.5000000000000000
  0.0000000000000000  0.0000000000000000  0.0000000000000000
 
  0.00000000E+00  0.00000000E+00  0.00000000E+00
  0.00000000E+00  0.00000000E+00  0.00000000E+00
  0.00000000E+00  0.00000000E+00  0.00000000E+00
  0.00000000E+00  0.00000000E+00  0.00000000E+00
  0.00000000E+00  0.00000000E+00  0.00000000E+00
  0.00000000E+00  0.00000000E+00  0.00000000E+00
  0.00000000E+00  0.00000000E+00  0.00000000E+00
  0.00000000E+00  0.00000000E+00  0.00000000E+00
  0.00000000E+00  0.00000000E+00  0.00000000E+00
