#2 (P -1)                               
   4.21686999456876     
     0.9991818361092970    0.0006794518518550    0.0011375151627732
    -0.0444942091326790    1.1178024364028663   -0.0008335424254813
    -0.0845428389024818   -0.1604888683549602    1.1865507494800875
   Fe   N 
     8     1
Direct
  0.2468200262135831  0.3676193943700830  0.0595851236192537
  0.7531799737864168  0.6323806056299172  0.9404148763807463
  0.7443931588399967  0.6288485543400713  0.4410560684660518
  0.2556068411600035  0.3711514456599287  0.5589439315339481
  0.7571790298708369  0.1306705544198043  0.6990586650952325
  0.2428209701291630  0.8693294455801955  0.3009413349047675
  0.2835108682623792  0.8504470388219101  0.7731293286291667
  0.7164891317376209  0.1495529611780901  0.2268706713708332
 -0.0000000000000000  0.0000000000000000  0.0000000000000000
 
  0.00000000E+00  0.00000000E+00  0.00000000E+00
  0.00000000E+00  0.00000000E+00  0.00000000E+00
  0.00000000E+00  0.00000000E+00  0.00000000E+00
  0.00000000E+00  0.00000000E+00  0.00000000E+00
  0.00000000E+00  0.00000000E+00  0.00000000E+00
  0.00000000E+00  0.00000000E+00  0.00000000E+00
  0.00000000E+00  0.00000000E+00  0.00000000E+00
  0.00000000E+00  0.00000000E+00  0.00000000E+00
  0.00000000E+00  0.00000000E+00  0.00000000E+00
