#139-I4/m2/m2/m                         
   1.00000000067949     
     5.6845876106348756    0.0000000000000000   -0.0000000000000000
    -0.0000000000000000    5.6845876106348756   -0.0000000000000000
     0.0000000000000000    0.0000000000000000    6.2135512427373394
   Fe   N 
    16     2
Direct
  0.2428649504515182  0.2428649504515182  0.0000000000000000
  0.2428649504515182  0.7571350495484819  0.0000000000000000
  0.7571350495484819  0.2428649504515182  0.0000000000000000
  0.7571350495484819  0.7571350495484819  0.0000000000000000
  0.7428649504515181  0.7428649504515181  0.5000000000000000
  0.7428649504515181  0.2571350495484818  0.5000000000000000
  0.2571350495484818  0.7428649504515181  0.5000000000000000
  0.2571350495484818  0.2571350495484818  0.5000000000000000
  0.0000000000000000  0.5000000000000000  0.2500000000000000
  0.0000000000000000  0.5000000000000000  0.7500000000000000
  0.5000000000000000 -0.0000000000000000  0.7500000000000000
  0.5000000000000000 -0.0000000000000000  0.2500000000000000
  0.0000000000000000 -0.0000000000000000  0.2941593746667070
  0.0000000000000000 -0.0000000000000000  0.7058406253332929
  0.5000000000000000  0.5000000000000000  0.7941593746667071
  0.5000000000000000  0.5000000000000000  0.2058406253332930
  0.0000000000000000 -0.0000000000000000  0.0000000000000000
  0.5000000000000000  0.5000000000000000  0.5000000000000000
 
  0.00000000E+00  0.00000000E+00  0.00000000E+00
  0.00000000E+00  0.00000000E+00  0.00000000E+00
  0.00000000E+00  0.00000000E+00  0.00000000E+00
  0.00000000E+00  0.00000000E+00  0.00000000E+00
  0.00000000E+00  0.00000000E+00  0.00000000E+00
  0.00000000E+00  0.00000000E+00  0.00000000E+00
  0.00000000E+00  0.00000000E+00  0.00000000E+00
  0.00000000E+00  0.00000000E+00  0.00000000E+00
  0.00000000E+00  0.00000000E+00  0.00000000E+00
  0.00000000E+00  0.00000000E+00  0.00000000E+00
  0.00000000E+00  0.00000000E+00  0.00000000E+00
  0.00000000E+00  0.00000000E+00  0.00000000E+00
  0.00000000E+00  0.00000000E+00  0.00000000E+00
  0.00000000E+00  0.00000000E+00  0.00000000E+00
  0.00000000E+00  0.00000000E+00  0.00000000E+00
  0.00000000E+00  0.00000000E+00  0.00000000E+00
  0.00000000E+00  0.00000000E+00  0.00000000E+00
  0.00000000E+00  0.00000000E+00  0.00000000E+00
