#69 (F m m m)                           
   6.29485000238277     
     0.4997415387472172   -0.0000000000000000   -0.8889509249498272
     0.0000000000000000    0.4496362606781035   -0.8889509249498272
     0.4997415387472172    0.4496362606781035    0.0000000000000000
   Fe   N 
     8     1
Direct
  0.3684903743565101  0.8843465744550074  0.6315096256434900
  0.6315096256434900  0.1156534255449925  0.3684903743565101
  0.1156534255449925  0.6315096256434900  0.8843465744550074
  0.8843465744550074  0.3684903743565101  0.1156534255449925
  0.7127492941240909  0.2872507058759090  0.7127492941240909
  0.2872507058759090  0.7127492941240909  0.2872507058759090
  0.5000000000000000  0.0000000000000000 -0.0000000000000000
 -0.0000000000000000  0.5000000000000000  0.5000000000000000
 -0.0000000000000000  0.0000000000000000 -0.0000000000000000
 
  0.00000000E+00  0.00000000E+00  0.00000000E+00
  0.00000000E+00  0.00000000E+00  0.00000000E+00
  0.00000000E+00  0.00000000E+00  0.00000000E+00
  0.00000000E+00  0.00000000E+00  0.00000000E+00
  0.00000000E+00  0.00000000E+00  0.00000000E+00
  0.00000000E+00  0.00000000E+00  0.00000000E+00
  0.00000000E+00  0.00000000E+00  0.00000000E+00
  0.00000000E+00  0.00000000E+00  0.00000000E+00
  0.00000000E+00  0.00000000E+00  0.00000000E+00
