#65 (C m m m)                           
   12.3167499869708     
    -0.4988884222391339    0.2327470745899608    0.0000000000000000
     0.4988884222391339    0.2327470745899608    0.0000000000000000
     0.0000000000000000    0.0000000000000000   -0.2297395418560582
   Fe   N 
     8     1
Direct
  0.1456175293884938  0.8543824706115063 -0.0000000000000000
  0.8543824706115063  0.1456175293884938 -0.0000000000000000
 -0.0000000000000000  0.5000000000000000  0.5000000000000000
  0.5000000000000000 -0.0000000000000000  0.5000000000000000
  0.7523076776499260  0.7523076776499260  0.5000000000000000
  0.2476923223500741  0.2476923223500741  0.5000000000000000
  0.6239711322094642  0.3760288677905356 -0.0000000000000000
  0.3760288677905356  0.6239711322094642 -0.0000000000000000
 -0.0000000000000000 -0.0000000000000000 -0.0000000000000000
 
  0.00000000E+00  0.00000000E+00  0.00000000E+00
  0.00000000E+00  0.00000000E+00  0.00000000E+00
  0.00000000E+00  0.00000000E+00  0.00000000E+00
  0.00000000E+00  0.00000000E+00  0.00000000E+00
  0.00000000E+00  0.00000000E+00  0.00000000E+00
  0.00000000E+00  0.00000000E+00  0.00000000E+00
  0.00000000E+00  0.00000000E+00  0.00000000E+00
  0.00000000E+00  0.00000000E+00  0.00000000E+00
  0.00000000E+00  0.00000000E+00  0.00000000E+00
