#2 (P -1)                               
   4.75045999558689     
     0.9996098943560430    0.0001942915610204    0.0004795910405110
    -0.1440434384033047    1.0530725901105333   -0.0000786440855774
    -0.4982019738673462   -0.3315968694677455    0.8811051490624886
   Fe   N 
     8     1
Direct
  0.5052357734670010  0.3794596950753782  0.7522278155614855
  0.4947642265329990  0.6205403049246221  0.2477721844385144
  0.0048232670026891  0.8440319598485275  0.2885102257406645
  0.9951767329973109  0.1559680401514723  0.7114897742593354
  0.5138484460567714  0.8754752967640789  0.7564789253929340
  0.4861515539432286  0.1245247032359211  0.2435210746070658
  0.9968903492598742  0.3605997325176654  0.2524367506292307
  0.0031096507401257  0.6394002674823273  0.7475632493707693
  0.0000000000000000 -0.0000000000000000 -0.0000000000000000
 
  0.00000000E+00  0.00000000E+00  0.00000000E+00
  0.00000000E+00  0.00000000E+00  0.00000000E+00
  0.00000000E+00  0.00000000E+00  0.00000000E+00
  0.00000000E+00  0.00000000E+00  0.00000000E+00
  0.00000000E+00  0.00000000E+00  0.00000000E+00
  0.00000000E+00  0.00000000E+00  0.00000000E+00
  0.00000000E+00  0.00000000E+00  0.00000000E+00
  0.00000000E+00  0.00000000E+00  0.00000000E+00
  0.00000000E+00  0.00000000E+00  0.00000000E+00
