#12 (C 2/m) [unique axis c] cell choice 
   8.57246001291092     
     0.2750256253869901    0.0000000000000000   -0.6837044280223162
    -0.5003292350616790    0.2315567912915656   -0.0002971313582425
     0.5003292350616790    0.2315567912915656    0.0002971313582425
   Fe   N 
     8     1
Direct
  0.3774292732250609  0.7465034235643380  0.2534965764356620
  0.6225707267749391  0.2534965764356620  0.7465034235643380
 -0.0000000000000000  0.5000000000000000  0.5000000000000000
  0.7144021509794425  0.0039955351769586  0.9960044648230413
  0.2855978490205576  0.9960044648230413  0.0039955351769586
  0.1265735121346660  0.2446287575420279  0.7553712424579722
  0.8734264878653339  0.7553712424579722  0.2446287575420279
  0.5000000000000000  0.5000000000000000  0.5000000000000000
 -0.0000000000000000  0.0000000000000000 -0.0000000000000000
 
  0.00000000E+00  0.00000000E+00  0.00000000E+00
  0.00000000E+00  0.00000000E+00  0.00000000E+00
  0.00000000E+00  0.00000000E+00  0.00000000E+00
  0.00000000E+00  0.00000000E+00  0.00000000E+00
  0.00000000E+00  0.00000000E+00  0.00000000E+00
  0.00000000E+00  0.00000000E+00  0.00000000E+00
  0.00000000E+00  0.00000000E+00  0.00000000E+00
  0.00000000E+00  0.00000000E+00  0.00000000E+00
  0.00000000E+00  0.00000000E+00  0.00000000E+00
