#225 (F m -3 m)                         
   7.34801000007825     
     0.4998281560387797    0.0000000000000000   -0.4998281560387797
    -0.0000000000000000    0.4998281560387797   -0.4998281560387797
     0.4998281560387797    0.4998281560387797   -0.0000000000000000
   Fe   N 
     8     1
Direct
  0.2562637033309020  0.7437362966690980  0.2562637033309020
  0.7437362966690980  0.2562637033309020  0.7437362966690980
  0.7437362966690980  0.7437362966690980  0.2562637033309020
  0.2562637033309020  0.2562637033309020  0.7437362966690980
  0.7437362966690980  0.2562637033309020  0.2562637033309020
  0.2562637033309020  0.7437362966690980  0.7437362966690980
  0.2500000000000000  0.2500000000000000  0.2500000000000000
  0.7500000000000000  0.7500000000000000  0.7500000000000000
  0.0000000000000000 -0.0000000000000000 -0.0000000000000000
 
  0.00000000E+00  0.00000000E+00  0.00000000E+00
  0.00000000E+00  0.00000000E+00  0.00000000E+00
  0.00000000E+00  0.00000000E+00  0.00000000E+00
  0.00000000E+00  0.00000000E+00  0.00000000E+00
  0.00000000E+00  0.00000000E+00  0.00000000E+00
  0.00000000E+00  0.00000000E+00  0.00000000E+00
  0.00000000E+00  0.00000000E+00  0.00000000E+00
  0.00000000E+00  0.00000000E+00  0.00000000E+00
  0.00000000E+00  0.00000000E+00  0.00000000E+00
