#10 (P 2/m) [unique axis c]             
   4.18564999328530     
     0.1245894536203032    0.0000000000000000   -2.0050075969718448
    -0.9998212828906832    0.0000000000000000   -0.0008216304163282
     0.0000000000000000    0.6756740308344368    0.0000000000000000
   Fe   N 
     8     1
Direct
  0.8539007092471955  0.3110294873878918  0.0000000000000000
  0.1460992907528045  0.6889705126121082  0.0000000000000000
  0.1320728546233084  0.2085548640088572  0.5000000000000000
  0.8679271453766916  0.7914451359911429  0.5000000000000000
  0.3787611363058019  0.2350485348276203 -0.0000000000000000
  0.6212388636941981  0.7649514651723798 -0.0000000000000000
  0.3814701051870962  0.7336549719064125  0.5000000000000000
  0.6185298948129039  0.2663450280935875  0.5000000000000000
 -0.0000000000000000 -0.0000000000000000 -0.0000000000000000
 
  0.00000000E+00  0.00000000E+00  0.00000000E+00
  0.00000000E+00  0.00000000E+00  0.00000000E+00
  0.00000000E+00  0.00000000E+00  0.00000000E+00
  0.00000000E+00  0.00000000E+00  0.00000000E+00
  0.00000000E+00  0.00000000E+00  0.00000000E+00
  0.00000000E+00  0.00000000E+00  0.00000000E+00
  0.00000000E+00  0.00000000E+00  0.00000000E+00
  0.00000000E+00  0.00000000E+00  0.00000000E+00
  0.00000000E+00  0.00000000E+00  0.00000000E+00
