#1 (P 1)                                
   2.52128999934460     
     0.9976329353358981    0.0007071269024077   -0.0005236638034965
    -0.4534326431137454    1.8647873309202672   -0.0006174395195657
    -0.0899195712680680   -0.3688529676957843    3.2918801256955867
   Fe   N 
     8     1
Direct
  0.7417557137026449  0.6708032236846265  0.8279561838970770
  0.8977599990139646  0.3851803865471214  0.5805325258346695
  0.3959947045084776  0.8834228002859051  0.5826223747830471
  0.6007570333290398  0.5860424401999651  0.3436792296430614
  0.1025356887180365  0.0879150259305426  0.3404508485510090
  0.3810983380511063  0.7788795698341924  0.1043271890035657
  0.7099351602175510  0.3066484864080254  0.0910512631040941
  0.1578873310178619  0.1895089177082714  0.8128643074700544
  0.9999660314413326  0.9995491494013390  0.9997160777134136
 
  0.00000000E+00  0.00000000E+00  0.00000000E+00
  0.00000000E+00  0.00000000E+00  0.00000000E+00
  0.00000000E+00  0.00000000E+00  0.00000000E+00
  0.00000000E+00  0.00000000E+00  0.00000000E+00
  0.00000000E+00  0.00000000E+00  0.00000000E+00
  0.00000000E+00  0.00000000E+00  0.00000000E+00
  0.00000000E+00  0.00000000E+00  0.00000000E+00
  0.00000000E+00  0.00000000E+00  0.00000000E+00
  0.00000000E+00  0.00000000E+00  0.00000000E+00
