#2 (P -1)                               
   4.21020999848451     
     0.9995915357515912    0.0003510438597743    0.0000298265292104
     0.4039268094066220    1.0530365876115546    0.0003264861626005
     0.0005298620959564    0.4285572988396577    1.2639098586006874
   Fe   N 
     8     1
Direct
  0.3880101028379876  0.7516713745463198  0.5598423951361279
  0.6119898971620124  0.2483286254536801  0.4401576048638722
  0.8911412374634010  0.7465887663742762  0.3124775510309318
  0.1088587625365989  0.2534112336257239  0.6875224489690683
  0.4339640176873810  0.7137046270322331  0.0739479569225500
  0.5660359823126192  0.2862953729677669  0.9260520430774501
  0.8881543597601358  0.7545754324753486  0.8116641140795876
  0.1118456402398642  0.2454245675246512  0.1883358859204124
  0.0000000000000000  0.0000000000000000 -0.0000000000000000
 
  0.00000000E+00  0.00000000E+00  0.00000000E+00
  0.00000000E+00  0.00000000E+00  0.00000000E+00
  0.00000000E+00  0.00000000E+00  0.00000000E+00
  0.00000000E+00  0.00000000E+00  0.00000000E+00
  0.00000000E+00  0.00000000E+00  0.00000000E+00
  0.00000000E+00  0.00000000E+00  0.00000000E+00
  0.00000000E+00  0.00000000E+00  0.00000000E+00
  0.00000000E+00  0.00000000E+00  0.00000000E+00
  0.00000000E+00  0.00000000E+00  0.00000000E+00
