#139-I4/m2/m2/m                         
   1.00000000053830     
     5.6855460199863552    0.0000000000000000   -0.0000000000000000
     0.0000000000000000    5.6855460199863552    0.0000000000000000
     0.0000000000000000   -0.0000000000000000    6.2092410628160470
   Fe   N 
    16     2
Direct
 -0.0000000000000000  0.0000000000000000  0.2944933514990578
 -0.0000000000000000  0.0000000000000000  0.7055066485009421
  0.5000000000000000  0.5000000000000000  0.7944933514990579
  0.5000000000000000  0.5000000000000000  0.2055066485009421
 -0.0000000000000000  0.5000000000000000  0.2500000000000000
 -0.0000000000000000  0.5000000000000000  0.7500000000000000
  0.5000000000000000  0.0000000000000000  0.7500000000000000
  0.5000000000000000  0.0000000000000000  0.2500000000000000
  0.7574045883675073  0.7574045883675073  0.0000000000000000
  0.7574045883675073  0.2425954116324928  0.0000000000000000
  0.2425954116324928  0.7574045883675073  0.0000000000000000
  0.2425954116324928  0.2425954116324928  0.0000000000000000
  0.2574045883675072  0.2574045883675072  0.5000000000000000
  0.2574045883675072  0.7425954116324927  0.5000000000000000
  0.7425954116324927  0.2574045883675072  0.5000000000000000
  0.7425954116324927  0.7425954116324927  0.5000000000000000
 -0.0000000000000000  0.0000000000000000  0.0000000000000000
  0.5000000000000000  0.5000000000000000  0.5000000000000000
 
  0.00000000E+00  0.00000000E+00  0.00000000E+00
  0.00000000E+00  0.00000000E+00  0.00000000E+00
  0.00000000E+00  0.00000000E+00  0.00000000E+00
  0.00000000E+00  0.00000000E+00  0.00000000E+00
  0.00000000E+00  0.00000000E+00  0.00000000E+00
  0.00000000E+00  0.00000000E+00  0.00000000E+00
  0.00000000E+00  0.00000000E+00  0.00000000E+00
  0.00000000E+00  0.00000000E+00  0.00000000E+00
  0.00000000E+00  0.00000000E+00  0.00000000E+00
  0.00000000E+00  0.00000000E+00  0.00000000E+00
  0.00000000E+00  0.00000000E+00  0.00000000E+00
  0.00000000E+00  0.00000000E+00  0.00000000E+00
  0.00000000E+00  0.00000000E+00  0.00000000E+00
  0.00000000E+00  0.00000000E+00  0.00000000E+00
  0.00000000E+00  0.00000000E+00  0.00000000E+00
  0.00000000E+00  0.00000000E+00  0.00000000E+00
  0.00000000E+00  0.00000000E+00  0.00000000E+00
  0.00000000E+00  0.00000000E+00  0.00000000E+00
