#47 (P m m m)                           
   5.69034000905385     
     0.0000000000000000    0.0000000000000000    0.4946141255122039
     1.0001439958457745    0.0000000000000000   -0.0000000000000000
     0.0000000000000000    1.0937873988629181    0.0000000000000000
   Fe   N 
     8     1
Direct
  0.0000000000000000  0.5000000000000000  0.2463076161595008
  0.0000000000000000  0.5000000000000000  0.7536923838404993
 -0.0000000000000000  0.0000000000000000  0.2899369631614011
 -0.0000000000000000  0.0000000000000000  0.7100630368385989
  0.5000000000000000  0.7518513259414494  0.0000000000000000
  0.5000000000000000  0.2481486740585505  0.0000000000000000
  0.5000000000000000  0.7379351086131634  0.5000000000000000
  0.5000000000000000  0.2620648913868367  0.5000000000000000
  0.0000000000000000 -0.0000000000000000  0.0000000000000000
 
  0.00000000E+00  0.00000000E+00  0.00000000E+00
  0.00000000E+00  0.00000000E+00  0.00000000E+00
  0.00000000E+00  0.00000000E+00  0.00000000E+00
  0.00000000E+00  0.00000000E+00  0.00000000E+00
  0.00000000E+00  0.00000000E+00  0.00000000E+00
  0.00000000E+00  0.00000000E+00  0.00000000E+00
  0.00000000E+00  0.00000000E+00  0.00000000E+00
  0.00000000E+00  0.00000000E+00  0.00000000E+00
  0.00000000E+00  0.00000000E+00  0.00000000E+00
