#18 (P 21 21 2)                         
   4.56968999497833     
     0.0000000000000000   -0.9370951058631384    0.0000000000000000
     1.0034285669075880    0.0000000000000000    0.0000000000000000
     0.0000000000000000    0.0000000000000000    1.1526024221088700
   Fe   N 
     8     2
Direct
  0.7467282390336906  0.3370981671282126  0.6313065009371038
  0.7532717609663094  0.8370981671282126  0.3686934990628962
  0.2467282390336905  0.1629018328717874  0.3686934990628962
  0.2532717609663093  0.6629018328717874  0.6313065009371038
  0.2527956368475174  0.1769822092630867  0.8817963101892851
  0.2472043631524825  0.6769822092630867  0.1182036898107150
  0.7527956368475176  0.3230177907369134  0.1182036898107150
  0.7472043631524824  0.8230177907369133  0.8817963101892851
  0.5000000000000000  0.5000000000000000  0.3686756155557949
 -0.0000000000000000 -0.0000000000000000  0.6313243844442051
 
  0.00000000E+00  0.00000000E+00  0.00000000E+00
  0.00000000E+00  0.00000000E+00  0.00000000E+00
  0.00000000E+00  0.00000000E+00  0.00000000E+00
  0.00000000E+00  0.00000000E+00  0.00000000E+00
  0.00000000E+00  0.00000000E+00  0.00000000E+00
  0.00000000E+00  0.00000000E+00  0.00000000E+00
  0.00000000E+00  0.00000000E+00  0.00000000E+00
  0.00000000E+00  0.00000000E+00  0.00000000E+00
  0.00000000E+00  0.00000000E+00  0.00000000E+00
  0.00000000E+00  0.00000000E+00  0.00000000E+00
