#2 (P -1)                               
   4.77452999674732     
     0.9985411992572085   -0.0000564179054445   -0.0012263324940525
     0.0985569935662326    0.9991000946262661   -0.0015505900135581
     0.1033157442365466    0.4722222756326881    0.9642252769357893
   Fe   N 
     8     2
Direct
  0.8933656480531323  0.7528282540518414  0.0362832928909924
  0.1066343519468677  0.2471717459481515  0.9637167071090076
  0.8926729766928628  0.7848539821070889  0.5048016337911957
  0.1073270233071372  0.2151460178929111  0.4951983662088043
  0.3789004019518548  0.7497418243040642  0.2983669970870808
  0.6210995980481452  0.2502581756959357  0.7016330029129192
  0.4124398559513234  0.7713967643185528  0.7727850041749164
  0.5875601440486766  0.2286032356814472  0.2272149958250837
  0.2416622338754824  0.4983479302951174  0.1362474789494752
  0.7583377661245176  0.5016520697048825  0.8637525210505248
 
  0.00000000E+00  0.00000000E+00  0.00000000E+00
  0.00000000E+00  0.00000000E+00  0.00000000E+00
  0.00000000E+00  0.00000000E+00  0.00000000E+00
  0.00000000E+00  0.00000000E+00  0.00000000E+00
  0.00000000E+00  0.00000000E+00  0.00000000E+00
  0.00000000E+00  0.00000000E+00  0.00000000E+00
  0.00000000E+00  0.00000000E+00  0.00000000E+00
  0.00000000E+00  0.00000000E+00  0.00000000E+00
  0.00000000E+00  0.00000000E+00  0.00000000E+00
  0.00000000E+00  0.00000000E+00  0.00000000E+00
