#43 (F d d 2)                           
   9.13839998873452     
     0.0000000000000000   -0.4715065825502333    0.2885474700174469
    -0.4985759675431439    0.0000000000000000    0.2885474700174469
    -0.4985759675431439   -0.4715065825502333    0.0000000000000000
   Fe   N 
     8     2
Direct
  0.4508593672386995  0.5303958026828508  0.2922164330968343
  0.5303958026828508  0.4508593672386995  0.7265283969816226
  0.5234716030183774  0.9577835669031658  0.7196041973171492
  0.9577835669031658  0.5234716030183774  0.7991406327613005
  0.0405465999218846  0.9658956378792856  0.2025027044686847
  0.9658956378792856  0.0405465999218846  0.7910550577301523
  0.4589449422698477  0.0474972955313153  0.2841043621207145
  0.0474972955313153  0.4589449422698477  0.2094534000781154
  0.7496825922772886  0.7496825922772886  0.2503174077227114
  0.9996825922772886  0.9996825922772886  0.5003174077227114
 
  0.00000000E+00  0.00000000E+00  0.00000000E+00
  0.00000000E+00  0.00000000E+00  0.00000000E+00
  0.00000000E+00  0.00000000E+00  0.00000000E+00
  0.00000000E+00  0.00000000E+00  0.00000000E+00
  0.00000000E+00  0.00000000E+00  0.00000000E+00
  0.00000000E+00  0.00000000E+00  0.00000000E+00
  0.00000000E+00  0.00000000E+00  0.00000000E+00
  0.00000000E+00  0.00000000E+00  0.00000000E+00
  0.00000000E+00  0.00000000E+00  0.00000000E+00
  0.00000000E+00  0.00000000E+00  0.00000000E+00
