#12 (C 2/m) [unique axis c] cell choice 
   5.17465001415995     
    -0.1009537445340743    0.0000000000000000    0.4911095795564075
     0.4993679691449206    0.7676190502598866    0.0001563611139721
    -0.4993679691449206    0.7676190502598866   -0.0001563611139721
   Fe   N 
     4     1
Direct
  0.4025217204710572  0.7191324403588624  0.2808675596411376
  0.5974782795289428  0.2808675596411376  0.7191324403588624
  0.0000000000000000  0.2430728299739613  0.2430728299739613
  0.0000000000000000  0.7569271700260387  0.7569271700260387
  0.0000000000000000  0.0000000000000000  0.0000000000000000
 
  0.00000000E+00  0.00000000E+00  0.00000000E+00
  0.00000000E+00  0.00000000E+00  0.00000000E+00
  0.00000000E+00  0.00000000E+00  0.00000000E+00
  0.00000000E+00  0.00000000E+00  0.00000000E+00
  0.00000000E+00  0.00000000E+00  0.00000000E+00
