#12 (C 2/m) [unique axis c] cell choice 
   9.00084998752662     
     0.1470259179692592    0.0000000000000000   -0.4862827170984023
    -0.5014320696036326    0.2975787967969578    0.0008654762368727
     0.5014320696036326    0.2975787967969578   -0.0008654762368727
   Fe   N 
     8     2
Direct
  0.4864270773927937  0.7612191397369849  0.2387808602630151
  0.5135729226072062  0.2387808602630151  0.7612191397369849
 -0.0000000000000000 -0.0000000000000000  0.5000000000000000
 -0.0000000000000000  0.5000000000000000  0.0000000000000000
 -0.0000000000000000 -0.0000000000000000  0.0000000000000000
 -0.0000000000000000  0.5000000000000000  0.5000000000000000
  0.5000000000000000  0.2486700912720565  0.2486700912720565
  0.5000000000000000  0.7513299087279436  0.7513299087279436
  0.2531505988949277  0.3680787361867063  0.6319212638132936
  0.7468494011050725  0.6319212638132936  0.3680787361867063
 
  0.00000000E+00  0.00000000E+00  0.00000000E+00
  0.00000000E+00  0.00000000E+00  0.00000000E+00
  0.00000000E+00  0.00000000E+00  0.00000000E+00
  0.00000000E+00  0.00000000E+00  0.00000000E+00
  0.00000000E+00  0.00000000E+00  0.00000000E+00
  0.00000000E+00  0.00000000E+00  0.00000000E+00
  0.00000000E+00  0.00000000E+00  0.00000000E+00
  0.00000000E+00  0.00000000E+00  0.00000000E+00
  0.00000000E+00  0.00000000E+00  0.00000000E+00
  0.00000000E+00  0.00000000E+00  0.00000000E+00
