#8 (C m) [unique axis c] cell choice 1  
   8.34608998989211     
     0.0300866846985964    0.0000000000000000   -0.4935269549339084
    -0.4990561376156517    0.3712808960292585    0.0002530056772531
     0.4990561376156517    0.3712808960292585   -0.0002530056772531
   Fe   N 
     8     2
Direct
  0.5731825900958222  0.4552929059945094  0.5447070940054906
  0.5232338911741231  0.4962632608506111  0.0225018328282320
  0.5232338911741231  0.9774981671717680  0.5037367391493889
  0.5302460397555807  0.9933339829369274  0.0066660170630725
  0.0039558454343979  0.7754252256792769  0.2245747743207233
  0.0511895523340748  0.2871423327122113  0.2962034669908318
  0.0511895523340748  0.7037965330091681  0.7128576672877888
  0.0245574037196902  0.2310221807580305  0.7689778192419695
  0.2893189655712636  0.6144509170170029  0.3855490829829969
  0.9975622684068561  0.9994644938704944  0.0005355061295057
 
  0.00000000E+00  0.00000000E+00  0.00000000E+00
  0.00000000E+00  0.00000000E+00  0.00000000E+00
  0.00000000E+00  0.00000000E+00  0.00000000E+00
  0.00000000E+00  0.00000000E+00  0.00000000E+00
  0.00000000E+00  0.00000000E+00  0.00000000E+00
  0.00000000E+00  0.00000000E+00  0.00000000E+00
  0.00000000E+00  0.00000000E+00  0.00000000E+00
  0.00000000E+00  0.00000000E+00  0.00000000E+00
  0.00000000E+00  0.00000000E+00  0.00000000E+00
  0.00000000E+00  0.00000000E+00  0.00000000E+00
