#64 (C m c a)                           
   7.80831999608171     
     0.4852004406620379    0.3404266847026829   -0.0000000000000000
     0.4852004406620379   -0.3404266847026829    0.0000000000000000
     0.0000000000000000    0.0000000000000000   -0.6733259427964970
   Fe   N 
     8     2
Direct
  0.7623020811917082  0.2376979188082919  0.2631077255759547
  0.2376979188082919  0.7623020811917082  0.7368922744240451
  0.2623020811917082  0.7376979188082918  0.2368922744240452
  0.7376979188082918  0.2623020811917082  0.7631077255759549
  0.7567852581093052  0.7567852581093052  0.5000000000000000
  0.7432147418906948  0.7432147418906948  0.0000000000000000
  0.2432147418906945  0.2432147418906945  0.5000000000000000
  0.2567852581093055  0.2567852581093055  0.0000000000000000
  0.5000000000000000  0.5000000000000000  0.5000000000000000
 -0.0000000000000000 -0.0000000000000000  0.0000000000000000
 
  0.00000000E+00  0.00000000E+00  0.00000000E+00
  0.00000000E+00  0.00000000E+00  0.00000000E+00
  0.00000000E+00  0.00000000E+00  0.00000000E+00
  0.00000000E+00  0.00000000E+00  0.00000000E+00
  0.00000000E+00  0.00000000E+00  0.00000000E+00
  0.00000000E+00  0.00000000E+00  0.00000000E+00
  0.00000000E+00  0.00000000E+00  0.00000000E+00
  0.00000000E+00  0.00000000E+00  0.00000000E+00
  0.00000000E+00  0.00000000E+00  0.00000000E+00
  0.00000000E+00  0.00000000E+00  0.00000000E+00
