#63 (C m c m)                           
   6.78177999657291     
    -0.5011875153790921    0.5807894713961212    0.0000000000000000
    -0.5011875153790921   -0.5807894713961212    0.0000000000000000
     0.0000000000000000   -0.0000000000000000    0.5771826497769967
   Fe   N 
     8     2
Direct
  0.8728671713980148  0.1271328286019851  0.2500000000000000
  0.1271328286019851  0.8728671713980148  0.7500000000000000
  0.8409246435982343  0.6059731404549235  0.2500000000000000
  0.6059731404549235  0.8409246435982343  0.7500000000000000
  0.3940268595450765  0.1590753564017657  0.2500000000000000
  0.1590753564017657  0.3940268595450765  0.7500000000000000
  0.3695623575035997  0.6304376424964003  0.2500000000000000
  0.6304376424964003  0.3695623575035997  0.7500000000000000
  0.1296299492140320  0.8703700507859680  0.2500000000000000
  0.8703700507859680  0.1296299492140320  0.7500000000000000
 
  0.00000000E+00  0.00000000E+00  0.00000000E+00
  0.00000000E+00  0.00000000E+00  0.00000000E+00
  0.00000000E+00  0.00000000E+00  0.00000000E+00
  0.00000000E+00  0.00000000E+00  0.00000000E+00
  0.00000000E+00  0.00000000E+00  0.00000000E+00
  0.00000000E+00  0.00000000E+00  0.00000000E+00
  0.00000000E+00  0.00000000E+00  0.00000000E+00
  0.00000000E+00  0.00000000E+00  0.00000000E+00
  0.00000000E+00  0.00000000E+00  0.00000000E+00
  0.00000000E+00  0.00000000E+00  0.00000000E+00
