#1 (P 1)                                
   4.12010999905087     
     1.0007222459761800    0.0001317889377598   -0.0014863026414497
    -0.0350265200099501    1.2183423136103186   -0.0002152826679249
    -0.0569960314710751   -0.2685722627835868    1.2379909023653770
   Fe   N 
     8     2
Direct
  0.2758145349783328  0.8642834699853124  0.7440454028946487
  0.2476219843658542  0.8745701331413342  0.2746938658953897
  0.2555990746613092  0.3674242031604539  0.0582889544673218
  0.7492298771782209  0.1205125542557688  0.7455552603575892
  0.7586127263292931  0.6476659953576309  0.9145154043929909
  0.2521994831913185  0.3795877425991549  0.5571220156884996
  0.7423690257520411  0.6794244311249159  0.4013009185688300
  0.7324475502535188  0.1557820263595179  0.2502601881580363
  0.7498561643079984  0.3980819673185150  0.5738194618284376
  0.9995595789821100  0.0005274766974009  0.9997985277482677
 
  0.00000000E+00  0.00000000E+00  0.00000000E+00
  0.00000000E+00  0.00000000E+00  0.00000000E+00
  0.00000000E+00  0.00000000E+00  0.00000000E+00
  0.00000000E+00  0.00000000E+00  0.00000000E+00
  0.00000000E+00  0.00000000E+00  0.00000000E+00
  0.00000000E+00  0.00000000E+00  0.00000000E+00
  0.00000000E+00  0.00000000E+00  0.00000000E+00
  0.00000000E+00  0.00000000E+00  0.00000000E+00
  0.00000000E+00  0.00000000E+00  0.00000000E+00
  0.00000000E+00  0.00000000E+00  0.00000000E+00
