#2 (P -1)                               
   4.52348000026784     
     1.0291564422085240    0.0261910008954541   -0.0025577032760277
     0.4984864739647410    0.9965812728841551   -0.0268642949522391
     0.0150265080571332    0.3354488167373726    1.0965650172134833
   Fe   N 
     8     2
Direct
  0.7678392802953796  0.2717892192859988  0.8274514875114123
  0.2321607197046204  0.7282107807140012  0.1725485124885877
  0.7199240604499797  0.7356381922914064  0.9445571692037829
  0.2800759395500203  0.2643618077085937  0.0554428307962171
  0.7182773030786981  0.7414618933351801  0.4295912936537006
  0.2817226969212949  0.2585381066648199  0.5704087063462993
  0.2057425520269127  0.7480215485164144  0.6882562744644315
  0.7942574479730874  0.2519784514835855  0.3117437255355685
  0.2545666177861333  0.9948915139605999  0.3629761880645408
  0.7454333822138668  0.0051084860394000  0.6370238119354594
 
  0.00000000E+00  0.00000000E+00  0.00000000E+00
  0.00000000E+00  0.00000000E+00  0.00000000E+00
  0.00000000E+00  0.00000000E+00  0.00000000E+00
  0.00000000E+00  0.00000000E+00  0.00000000E+00
  0.00000000E+00  0.00000000E+00  0.00000000E+00
  0.00000000E+00  0.00000000E+00  0.00000000E+00
  0.00000000E+00  0.00000000E+00  0.00000000E+00
  0.00000000E+00  0.00000000E+00  0.00000000E+00
  0.00000000E+00  0.00000000E+00  0.00000000E+00
  0.00000000E+00  0.00000000E+00  0.00000000E+00
