#15-C12/c1                              
   1.00000000009662     
    11.9500801081506705    0.0000000000000000    0.0054251523251550
     0.0000000000000000    4.3084057266346187    0.0000000000000000
    -1.1622842626920042    0.0000000000000000    5.0293586723030259
   Fe   N 
    20     4
Direct
  0.8086977992254013  0.0508883251305335  0.2412888442935083
  0.1913022007745987  0.0508883251305335  0.2587111557064917
  0.1913022007745987  0.9491116748694665  0.7587111557064917
  0.8086977992254013  0.9491116748694665  0.7412888442935083
  0.3086977992254012  0.5508883251305335  0.2412888442935083
  0.6913022007745987  0.5508883251305335  0.2587111557064917
  0.6913022007745987  0.4491116748694665  0.7587111557064917
  0.3086977992254012  0.4491116748694665  0.7412888442935083
  0.0986652243946875  0.4829022723022680  0.8942967910001784
  0.9013347756053125  0.4829022723022680  0.6057032089998216
  0.9013347756053125  0.5170977276977320  0.1057032089998215
  0.0986652243946875  0.5170977276977320  0.3942967910001785
  0.5986652243946875  0.9829022723022680  0.8942967910001784
  0.4013347756053125  0.9829022723022680  0.6057032089998216
  0.4013347756053125  0.0170977276977320  0.1057032089998215
  0.5986652243946875  0.0170977276977320  0.3942967910001785
 -0.0000000000000000  0.0000000000000000 -0.0000000000000000
 -0.0000000000000000  0.0000000000000000  0.5000000000000000
  0.5000000000000000  0.5000000000000000 -0.0000000000000000
  0.5000000000000000  0.5000000000000000  0.5000000000000000
  0.2500000000000000  0.2500000000000000 -0.0000000000000000
  0.7500000000000000  0.2500000000000000  0.5000000000000000
  0.7500000000000000  0.7500000000000000 -0.0000000000000000
  0.2500000000000000  0.7500000000000000  0.5000000000000000
 
  0.00000000E+00  0.00000000E+00  0.00000000E+00
  0.00000000E+00  0.00000000E+00  0.00000000E+00
  0.00000000E+00  0.00000000E+00  0.00000000E+00
  0.00000000E+00  0.00000000E+00  0.00000000E+00
  0.00000000E+00  0.00000000E+00  0.00000000E+00
  0.00000000E+00  0.00000000E+00  0.00000000E+00
  0.00000000E+00  0.00000000E+00  0.00000000E+00
  0.00000000E+00  0.00000000E+00  0.00000000E+00
  0.00000000E+00  0.00000000E+00  0.00000000E+00
  0.00000000E+00  0.00000000E+00  0.00000000E+00
  0.00000000E+00  0.00000000E+00  0.00000000E+00
  0.00000000E+00  0.00000000E+00  0.00000000E+00
  0.00000000E+00  0.00000000E+00  0.00000000E+00
  0.00000000E+00  0.00000000E+00  0.00000000E+00
  0.00000000E+00  0.00000000E+00  0.00000000E+00
  0.00000000E+00  0.00000000E+00  0.00000000E+00
  0.00000000E+00  0.00000000E+00  0.00000000E+00
  0.00000000E+00  0.00000000E+00  0.00000000E+00
  0.00000000E+00  0.00000000E+00  0.00000000E+00
  0.00000000E+00  0.00000000E+00  0.00000000E+00
  0.00000000E+00  0.00000000E+00  0.00000000E+00
  0.00000000E+00  0.00000000E+00  0.00000000E+00
  0.00000000E+00  0.00000000E+00  0.00000000E+00
  0.00000000E+00  0.00000000E+00  0.00000000E+00
