#4-P1211                                
   1.00000000082999     
     4.6599426025777504    0.0000000000000000   -0.0030253641858972
     0.0000000000000000    4.2759281229234993    0.0000000000000000
    -1.7176856089354480    0.0000000000000000    6.4286852947936541
   Fe   N 
    10     2
Direct
  0.6423519211127098  0.0087179116277111  0.0646793347356357
  0.3576480788872900  0.5087179116277111  0.9353206652643642
  0.0412891513036150  0.9959751568065032  0.8875477194330221
  0.9587108486963850  0.4959751568065032  0.1124522805669778
  0.7561692123157933  0.5345780007590366  0.7370256142323823
  0.2438307876842068  0.0345780007590367  0.2629743857676178
  0.8336674444171006  0.0718063358920087  0.4895112027346090
  0.1663325555828995  0.5718063358920087  0.5104887972653911
  0.4394573270515576  0.0382850696726659  0.6683017771309774
  0.5605426729484425  0.5382850696726659  0.3316982228690227
  0.1030329726477267  0.2911375252420604  0.7019389974824015
  0.8969670273522733  0.7911375252420673  0.2980610025175984
 
  0.00000000E+00  0.00000000E+00  0.00000000E+00
  0.00000000E+00  0.00000000E+00  0.00000000E+00
  0.00000000E+00  0.00000000E+00  0.00000000E+00
  0.00000000E+00  0.00000000E+00  0.00000000E+00
  0.00000000E+00  0.00000000E+00  0.00000000E+00
  0.00000000E+00  0.00000000E+00  0.00000000E+00
  0.00000000E+00  0.00000000E+00  0.00000000E+00
  0.00000000E+00  0.00000000E+00  0.00000000E+00
  0.00000000E+00  0.00000000E+00  0.00000000E+00
  0.00000000E+00  0.00000000E+00  0.00000000E+00
  0.00000000E+00  0.00000000E+00  0.00000000E+00
  0.00000000E+00  0.00000000E+00  0.00000000E+00
