#20-C2221                               
   1.00000000009310     
    13.5075421421204620    0.0000000000000000    0.0000000000000000
     0.0000000000000000    4.4166224326618773    0.0000000000000000
     0.0000000000000000    0.0000000000000000    4.2781531103623598
   Fe   N 
    20     4
Direct
  0.2006675116207267  0.2927428417289078  0.7591099506583293
  0.2006675116207267  0.7072571582710923  0.2408900493416707
  0.7993324883792733  0.2927428417289078  0.7408900493416707
  0.7993324883792733  0.7072571582710923  0.2591099506583294
  0.7006675116207267  0.7927428417289077  0.7591099506583293
  0.7006675116207267  0.2072571582710923  0.2408900493416707
  0.2993324883792732  0.7927428417289077  0.7408900493416707
  0.2993324883792732  0.2072571582710923  0.2591099506583294
  0.5991684725204086  0.3294143770578091  0.7299747798061558
  0.5991684725204086  0.6705856229421907  0.2700252201938443
  0.4008315274795914  0.3294143770578091  0.7700252201938442
  0.4008315274795914  0.6705856229421907  0.2299747798061558
  0.0991684725204086  0.8294143770578093  0.7299747798061558
  0.0991684725204086  0.1705856229421910  0.2700252201938443
  0.9008315274795914  0.8294143770578093  0.7700252201938442
  0.9008315274795914  0.1705856229421910  0.2299747798061558
  0.0000000000000000  0.6839099227176788  0.2500000000000000
  0.0000000000000000  0.3160900772823212  0.7500000000000000
  0.5000000000000000  0.1839099227176788  0.2500000000000000
  0.5000000000000000  0.8160900772823212  0.7500000000000000
  0.6001535219390196  0.0000000000000000 -0.0000000000000000
  0.3998464780609804  0.0000000000000000  0.5000000000000000
  0.1001535219390195  0.5000000000000000 -0.0000000000000000
  0.8998464780609804  0.5000000000000000  0.5000000000000000
 
  0.00000000E+00  0.00000000E+00  0.00000000E+00
  0.00000000E+00  0.00000000E+00  0.00000000E+00
  0.00000000E+00  0.00000000E+00  0.00000000E+00
  0.00000000E+00  0.00000000E+00  0.00000000E+00
  0.00000000E+00  0.00000000E+00  0.00000000E+00
  0.00000000E+00  0.00000000E+00  0.00000000E+00
  0.00000000E+00  0.00000000E+00  0.00000000E+00
  0.00000000E+00  0.00000000E+00  0.00000000E+00
  0.00000000E+00  0.00000000E+00  0.00000000E+00
  0.00000000E+00  0.00000000E+00  0.00000000E+00
  0.00000000E+00  0.00000000E+00  0.00000000E+00
  0.00000000E+00  0.00000000E+00  0.00000000E+00
  0.00000000E+00  0.00000000E+00  0.00000000E+00
  0.00000000E+00  0.00000000E+00  0.00000000E+00
  0.00000000E+00  0.00000000E+00  0.00000000E+00
  0.00000000E+00  0.00000000E+00  0.00000000E+00
  0.00000000E+00  0.00000000E+00  0.00000000E+00
  0.00000000E+00  0.00000000E+00  0.00000000E+00
  0.00000000E+00  0.00000000E+00  0.00000000E+00
  0.00000000E+00  0.00000000E+00  0.00000000E+00
  0.00000000E+00  0.00000000E+00  0.00000000E+00
  0.00000000E+00  0.00000000E+00  0.00000000E+00
  0.00000000E+00  0.00000000E+00  0.00000000E+00
  0.00000000E+00  0.00000000E+00  0.00000000E+00
