#1-P1                                   
   1.00000000097412     
     4.7462367712759468    0.0024475935865920    0.0000226222209749
     2.1938672359828568    4.4654232947534371   -0.0004140173067133
     1.8288315549013963    0.3909439012776985    6.1098328375406288
   Fe   N 
    10     2
Direct
  0.5112084103670272  0.2275501220453157  0.2762901697975238
  0.0716810577300122  0.0405177884714722  0.4660901494487629
  0.0723468732658923  0.7525604874537251  0.2181351317697307
  0.5868133505921719  0.5855214417145547  0.4459504160019055
  0.0839533929426632  0.4820795614720642  0.6366485806454344
  0.5756766880655627  0.9844824124880205  0.6489035501512290
  0.0616278490231869  0.2986100738548542  0.0523523136062578
  0.1295192171779473  0.8451467860422542  0.8126612486502521
  0.5895587022257821  0.3793913248637283  0.8474282951161061
  0.5874494489469347  0.8052846720654069  0.0362712057021684
  0.8333077227357295  0.0616949583758940  0.0389917814374623
  0.0587272869270974  0.4033003711527114  0.3503271576731460
 
  0.00000000E+00  0.00000000E+00  0.00000000E+00
  0.00000000E+00  0.00000000E+00  0.00000000E+00
  0.00000000E+00  0.00000000E+00  0.00000000E+00
  0.00000000E+00  0.00000000E+00  0.00000000E+00
  0.00000000E+00  0.00000000E+00  0.00000000E+00
  0.00000000E+00  0.00000000E+00  0.00000000E+00
  0.00000000E+00  0.00000000E+00  0.00000000E+00
  0.00000000E+00  0.00000000E+00  0.00000000E+00
  0.00000000E+00  0.00000000E+00  0.00000000E+00
  0.00000000E+00  0.00000000E+00  0.00000000E+00
  0.00000000E+00  0.00000000E+00  0.00000000E+00
  0.00000000E+00  0.00000000E+00  0.00000000E+00
