#2-P-1                                  
   1.00000000063372     
     4.0966273122587591    0.0034265713069614   -0.0015411016338047
    -0.2847115670481936    5.1234185893360387   -0.0053217674201337
    -2.0086246356198294   -1.9724852959155872    6.1857296688197296
   Fe   N 
    10     2
Direct
  0.8598526302902376  0.6278056696759491  0.2668903546445955
  0.1401473697097624  0.3721943303240509  0.7331096453554045
  0.5000000000000000  0.0000000000000000  0.5000000000000000
  0.5000000000000000  0.5000000000000000  0.5000000000000000
  0.6906364738537853  0.7904431821839644  0.9058571872984498
  0.3093635261462147  0.2095568178160356  0.0941428127015502
  0.7345946706746885  0.2415625799738009  0.8840416794947139
  0.2654053293253115  0.7584374200261991  0.1159583205052861
  0.9055588414999156  0.1274316748019051  0.3074444283335759
  0.0944411585000845  0.8725683251980949  0.6925555716664241
 -0.0000000000000000  0.5000000000000000  0.5000000000000000
  0.5000000000000000  0.5000000000000000  0.0000000000000000
 
  0.00000000E+00  0.00000000E+00  0.00000000E+00
  0.00000000E+00  0.00000000E+00  0.00000000E+00
  0.00000000E+00  0.00000000E+00  0.00000000E+00
  0.00000000E+00  0.00000000E+00  0.00000000E+00
  0.00000000E+00  0.00000000E+00  0.00000000E+00
  0.00000000E+00  0.00000000E+00  0.00000000E+00
  0.00000000E+00  0.00000000E+00  0.00000000E+00
  0.00000000E+00  0.00000000E+00  0.00000000E+00
  0.00000000E+00  0.00000000E+00  0.00000000E+00
  0.00000000E+00  0.00000000E+00  0.00000000E+00
  0.00000000E+00  0.00000000E+00  0.00000000E+00
  0.00000000E+00  0.00000000E+00  0.00000000E+00
