#1-P1                                   
  0.999999999767162     
     4.6733548514718644   -0.0060045637447426    0.0031818251537329
     0.3263149298088470    4.9418068647437634   -0.0022372402301269
     2.0927321607144447    1.7301037857097030    5.5714054568137152
   Fe   N 
    10     2
Direct
  0.4336466896666522  0.1859596649074278  0.8849628127750766
  0.2196323017397491  0.8350457005194676  0.2785454827240233
  0.0073770854876906  0.4628705306067927  0.1325086166137218
  0.1796301593497995  0.9155484523769248  0.7241651810708279
  0.5859433092882005  0.6685576480269665  0.9157924164253978
  0.8074742953517842  0.0710191072117265  0.5296947524962919
  0.4121230867605743  0.2727237652123093  0.3359769889031500
  0.6146666615967604  0.6264512831865046  0.5061197032851942
  0.0189068259955581  0.4349521169802563  0.6767609231349304
  0.8224292248769077  0.0171575929685338  0.0820242467718993
  0.6297348426780291  0.6480032890301932  0.2033275139509595
  0.3002955172082961  0.5489908489728980  0.8082113618485232
 
  0.00000000E+00  0.00000000E+00  0.00000000E+00
  0.00000000E+00  0.00000000E+00  0.00000000E+00
  0.00000000E+00  0.00000000E+00  0.00000000E+00
  0.00000000E+00  0.00000000E+00  0.00000000E+00
  0.00000000E+00  0.00000000E+00  0.00000000E+00
  0.00000000E+00  0.00000000E+00  0.00000000E+00
  0.00000000E+00  0.00000000E+00  0.00000000E+00
  0.00000000E+00  0.00000000E+00  0.00000000E+00
  0.00000000E+00  0.00000000E+00  0.00000000E+00
  0.00000000E+00  0.00000000E+00  0.00000000E+00
  0.00000000E+00  0.00000000E+00  0.00000000E+00
  0.00000000E+00  0.00000000E+00  0.00000000E+00
