#1-P1                                   
  0.999999998717109     
     2.5746472083272542   -0.0029916854183241    0.0010334151991951
     0.5449502109940100    4.6794836938437818   -0.0016052382005026
     0.8175984619879346    1.1744197617559311   10.5956130964199442
   Fe   N 
    10     2
Direct
  0.7661224631578969  0.6058078825753913  0.8825230877622537
  0.0540996015962884  0.0594856709200302  0.2904926136243665
  0.6051446325268766  0.4013503996974288  0.6864961291487702
  0.4484508439317330  0.1849865896639209  0.5006953748048707
  0.3455341151581466  0.0927947522222345  0.8724182987801082
  0.8761511706465265  0.6999029383437382  0.4905642613856556
  0.2444915033190196  0.3779237343172226  0.0934372213277573
  0.1039277865020959  0.8937767644964216  0.6861998383684306
  0.8313764475960987  0.8704816363907887  0.0885577625374396
  0.4740653617038493  0.5777990594944123  0.2752673534475650
  0.9590368370438965  0.3835225820292544  0.3894108082888534
  0.7971592368175676  0.2349779898491486  0.9828272505239269
 
  0.00000000E+00  0.00000000E+00  0.00000000E+00
  0.00000000E+00  0.00000000E+00  0.00000000E+00
  0.00000000E+00  0.00000000E+00  0.00000000E+00
  0.00000000E+00  0.00000000E+00  0.00000000E+00
  0.00000000E+00  0.00000000E+00  0.00000000E+00
  0.00000000E+00  0.00000000E+00  0.00000000E+00
  0.00000000E+00  0.00000000E+00  0.00000000E+00
  0.00000000E+00  0.00000000E+00  0.00000000E+00
  0.00000000E+00  0.00000000E+00  0.00000000E+00
  0.00000000E+00  0.00000000E+00  0.00000000E+00
  0.00000000E+00  0.00000000E+00  0.00000000E+00
  0.00000000E+00  0.00000000E+00  0.00000000E+00
