#10-P12/m1                              
  0.999999999991848     
     5.3039590212709271    0.0000000000000000    0.0070327339476639
     0.0000000000000000    3.9419515787145034    0.0000000000000000
    -0.6647327793014784    0.0000000000000000    6.1825929856161173
   Fe   N 
    10     2
Direct
  0.5574710018647667  0.5000000000000000  0.6868871329416284
  0.4425289981352333  0.5000000000000000  0.3131128670583714
  0.7737683752927424  0.5000000000000000  0.0763004914113121
  0.2262316247072575  0.5000000000000000  0.9236995085886880
  0.6998912954854591 -0.0000000000000000  0.3966412637188055
  0.3001087045145409 -0.0000000000000000  0.6033587362811945
  0.5000000000000000  0.0000000000000000 -0.0000000000000000
  0.8939015568627231  0.0000000000000000  0.7909759287236103
  0.1060984431372768  0.0000000000000000  0.2090240712763897
  0.0000000000000000  0.5000000000000000  0.5000000000000000
  0.8943416668658797  0.5000000000000000  0.7850113570524669
  0.1056583331341204  0.5000000000000000  0.2149886429475330
 
  0.00000000E+00  0.00000000E+00  0.00000000E+00
  0.00000000E+00  0.00000000E+00  0.00000000E+00
  0.00000000E+00  0.00000000E+00  0.00000000E+00
  0.00000000E+00  0.00000000E+00  0.00000000E+00
  0.00000000E+00  0.00000000E+00  0.00000000E+00
  0.00000000E+00  0.00000000E+00  0.00000000E+00
  0.00000000E+00  0.00000000E+00  0.00000000E+00
  0.00000000E+00  0.00000000E+00  0.00000000E+00
  0.00000000E+00  0.00000000E+00  0.00000000E+00
  0.00000000E+00  0.00000000E+00  0.00000000E+00
  0.00000000E+00  0.00000000E+00  0.00000000E+00
  0.00000000E+00  0.00000000E+00  0.00000000E+00
