#5-C121                                 
  0.999999999771641     
    12.0768652627568436    0.0000000000000000    0.0022756085246259
     0.0000000000000000    4.3049345412595716    0.0000000000000000
    -1.0595841050433406    0.0000000000000000    4.9839172216921002
   Fe   N 
    20     4
Direct
  0.9968507392257389  0.4287627827128209  0.2440621935990712
  0.0031492607742611  0.4287627827128209  0.7559378064009288
  0.4968507392257389  0.9287627827128209  0.2440621935990712
  0.5031492607742611  0.9287627827128209  0.7559378064009288
  0.4066212852887605  0.4748306335201538  0.3947136508592957
  0.5933787147112396  0.4748306335201538  0.6052863491407043
  0.9066212852887604  0.9748306335201538  0.3947136508592957
  0.0933787147112396  0.9748306335201538  0.6052863491407043
  0.3998022271465958  0.4113194062047254  0.8652124161303902
  0.6001977728534043  0.4113194062047254  0.1347875838696097
  0.8998022271465957  0.9113194062047254  0.8652124161303902
  0.1001977728534042  0.9113194062047254  0.1347875838696097
  0.2109553293610134  0.3751942828698533  0.0890491376414626
  0.7890446706389866  0.3751942828698533  0.9109508623585374
  0.7109553293610134  0.8751942828698533  0.0890491376414626
  0.2890446706389866  0.8751942828698533  0.9109508623585374
  0.1981826513717132  0.4524720389713419  0.5512258293455906
  0.8018173486282868  0.4524720389713419  0.4487741706544094
  0.6981826513717132  0.9524720389713419  0.5512258293455906
  0.3018173486282868  0.9524720389713419  0.4487741706544094
  0.6457526037565546  0.1672308557211106  0.8447781713527891
  0.3542473962434453  0.1672308557211106  0.1552218286472109
  0.1457526037565547  0.6672308557211106  0.8447781713527891
  0.8542473962434454  0.6672308557211106  0.1552218286472109
 
  0.00000000E+00  0.00000000E+00  0.00000000E+00
  0.00000000E+00  0.00000000E+00  0.00000000E+00
  0.00000000E+00  0.00000000E+00  0.00000000E+00
  0.00000000E+00  0.00000000E+00  0.00000000E+00
  0.00000000E+00  0.00000000E+00  0.00000000E+00
  0.00000000E+00  0.00000000E+00  0.00000000E+00
  0.00000000E+00  0.00000000E+00  0.00000000E+00
  0.00000000E+00  0.00000000E+00  0.00000000E+00
  0.00000000E+00  0.00000000E+00  0.00000000E+00
  0.00000000E+00  0.00000000E+00  0.00000000E+00
  0.00000000E+00  0.00000000E+00  0.00000000E+00
  0.00000000E+00  0.00000000E+00  0.00000000E+00
  0.00000000E+00  0.00000000E+00  0.00000000E+00
  0.00000000E+00  0.00000000E+00  0.00000000E+00
  0.00000000E+00  0.00000000E+00  0.00000000E+00
  0.00000000E+00  0.00000000E+00  0.00000000E+00
  0.00000000E+00  0.00000000E+00  0.00000000E+00
  0.00000000E+00  0.00000000E+00  0.00000000E+00
  0.00000000E+00  0.00000000E+00  0.00000000E+00
  0.00000000E+00  0.00000000E+00  0.00000000E+00
  0.00000000E+00  0.00000000E+00  0.00000000E+00
  0.00000000E+00  0.00000000E+00  0.00000000E+00
  0.00000000E+00  0.00000000E+00  0.00000000E+00
  0.00000000E+00  0.00000000E+00  0.00000000E+00
