#1-P1                                   
   1.00000000017451     
     4.7087263618813919   -0.0007975266208440   -0.0005576313088465
     2.1668644535658190    4.4513197228800401   -0.0009136620736534
     1.7203655999501584    1.7668183571260969    6.1331503135833225
   Fe   N 
    10     2
Direct
  0.2727384073692164  0.5678798801057239  0.1977442929961686
  0.1232634886313378  0.1098921719724979  0.3465096665118286
  0.7363380997926232  0.0659518064187107  0.1281908363471757
  0.6275259169700623  0.6407041236234552  0.3964472171330801
  0.3233708662861731  0.0996963109898073  0.9368689643234456
  0.5226869523822617  0.1164630564598236  0.5428309014397816
  0.8392063229493865  0.5953090104607769  0.9791847265060061
  0.4202011055659239  0.6113728667516216  0.7714933421838087
  0.0319086758160981  0.6125836566928589  0.5737593512568495
  0.8990298202432755  0.1469088980663478  0.7200888354122500
  0.0773281901667440  0.8398693697391657  0.9570912580044439
  0.6921221538268818  0.3492288487192021  0.2628606078851645
 
  0.00000000E+00  0.00000000E+00  0.00000000E+00
  0.00000000E+00  0.00000000E+00  0.00000000E+00
  0.00000000E+00  0.00000000E+00  0.00000000E+00
  0.00000000E+00  0.00000000E+00  0.00000000E+00
  0.00000000E+00  0.00000000E+00  0.00000000E+00
  0.00000000E+00  0.00000000E+00  0.00000000E+00
  0.00000000E+00  0.00000000E+00  0.00000000E+00
  0.00000000E+00  0.00000000E+00  0.00000000E+00
  0.00000000E+00  0.00000000E+00  0.00000000E+00
  0.00000000E+00  0.00000000E+00  0.00000000E+00
  0.00000000E+00  0.00000000E+00  0.00000000E+00
  0.00000000E+00  0.00000000E+00  0.00000000E+00
