#12-C12/m1                              
   1.00000000033289     
    12.5639713431607341    0.0000000000000000    0.0100838538597826
     0.0000000000000000    3.9390164330674922    0.0000000000000000
    -0.0276149562922764    0.0000000000000000    2.5847298281535895
   Fe   N 
    10     2
Direct
  0.3873350193875465 -0.0000000000000000  0.0044505867845086
  0.6126649806124534  0.0000000000000000  0.9955494132154914
  0.8873350193875466  0.5000000000000000  0.0044505867845086
  0.1126649806124535  0.5000000000000000  0.9955494132154914
 -0.0000000000000000 -0.0000000000000000  0.5000000000000000
  0.5000000000000000  0.5000000000000000  0.5000000000000000
  0.2036268700885783 -0.0000000000000000  0.3188868256296375
  0.7963731299114216 -0.0000000000000000  0.6811131743703626
  0.7036268700885784  0.5000000000000000  0.3188868256296375
  0.2963731299114217  0.5000000000000000  0.6811131743703626
 -0.0000000000000000  0.5000000000000000  0.5000000000000000
  0.5000000000000000 -0.0000000000000000  0.5000000000000000
 
  0.00000000E+00  0.00000000E+00  0.00000000E+00
  0.00000000E+00  0.00000000E+00  0.00000000E+00
  0.00000000E+00  0.00000000E+00  0.00000000E+00
  0.00000000E+00  0.00000000E+00  0.00000000E+00
  0.00000000E+00  0.00000000E+00  0.00000000E+00
  0.00000000E+00  0.00000000E+00  0.00000000E+00
  0.00000000E+00  0.00000000E+00  0.00000000E+00
  0.00000000E+00  0.00000000E+00  0.00000000E+00
  0.00000000E+00  0.00000000E+00  0.00000000E+00
  0.00000000E+00  0.00000000E+00  0.00000000E+00
  0.00000000E+00  0.00000000E+00  0.00000000E+00
  0.00000000E+00  0.00000000E+00  0.00000000E+00
