#12-C12/m1                              
   1.00000000035438     
    12.9409679929818289    0.0000000000000000   -0.0579792414387097
     0.0000000000000000    3.8625848893609520    0.0000000000000000
    -0.4048407002414829    0.0000000000000000    5.1895225793544348
   Fe   N 
    20     4
Direct
  0.0978599581049676 -0.0000000000000000  0.2749629503811550
  0.9021400418950324 -0.0000000000000000  0.7250370496188449
  0.5978599581049676  0.5000000000000000  0.2749629503811550
  0.4021400418950324  0.5000000000000000  0.7250370496188449
  0.2885694313913809  0.0000000000000000  0.4342941687694216
  0.7114305686086191  0.0000000000000000  0.5657058312305855
  0.7885694313913809  0.5000000000000000  0.4342941687694216
  0.2114305686086191  0.5000000000000000  0.5657058312305855
  0.0000000000000000  0.5000000000000000  0.5000000000000000
  0.5000000000000000  0.0000000000000000  0.5000000000000000
  0.6995393964545072  0.0000000000000000  0.0873869811374177
  0.3004606035454929  0.0000000000000000  0.9126130188625822
  0.1995393964545072  0.5000000000000000  0.0873869811374177
  0.8004606035454928  0.5000000000000000  0.9126130188625822
  0.1081827310747917  0.0000000000000000  0.7703367444439686
  0.8918172689252083  0.0000000000000000  0.2296632555560315
  0.6081827310747917  0.5000000000000000  0.7703367444439686
  0.3918172689252083  0.5000000000000000  0.2296632555560315
  0.0000000000000000  0.5000000000000000 -0.0000000000000000
  0.5000000000000000  0.0000000000000000 -0.0000000000000000
  0.6056152795370393 -0.0000000000000000  0.7779390287124064
  0.3943847204629609 -0.0000000000000000  0.2220609712875936
  0.1056152795370391  0.5000000000000000  0.7779390287124064
  0.8943847204629607  0.5000000000000000  0.2220609712875936
 
  0.00000000E+00  0.00000000E+00  0.00000000E+00
  0.00000000E+00  0.00000000E+00  0.00000000E+00
  0.00000000E+00  0.00000000E+00  0.00000000E+00
  0.00000000E+00  0.00000000E+00  0.00000000E+00
  0.00000000E+00  0.00000000E+00  0.00000000E+00
  0.00000000E+00  0.00000000E+00  0.00000000E+00
  0.00000000E+00  0.00000000E+00  0.00000000E+00
  0.00000000E+00  0.00000000E+00  0.00000000E+00
  0.00000000E+00  0.00000000E+00  0.00000000E+00
  0.00000000E+00  0.00000000E+00  0.00000000E+00
  0.00000000E+00  0.00000000E+00  0.00000000E+00
  0.00000000E+00  0.00000000E+00  0.00000000E+00
  0.00000000E+00  0.00000000E+00  0.00000000E+00
  0.00000000E+00  0.00000000E+00  0.00000000E+00
  0.00000000E+00  0.00000000E+00  0.00000000E+00
  0.00000000E+00  0.00000000E+00  0.00000000E+00
  0.00000000E+00  0.00000000E+00  0.00000000E+00
  0.00000000E+00  0.00000000E+00  0.00000000E+00
  0.00000000E+00  0.00000000E+00  0.00000000E+00
  0.00000000E+00  0.00000000E+00  0.00000000E+00
  0.00000000E+00  0.00000000E+00  0.00000000E+00
  0.00000000E+00  0.00000000E+00  0.00000000E+00
  0.00000000E+00  0.00000000E+00  0.00000000E+00
  0.00000000E+00  0.00000000E+00  0.00000000E+00
