#2-P-1                                  
  0.999999999684568     
     4.3315292709689608    0.0107159785033397   -0.0084985560948434
     0.6200884403979778    5.1015519699324656   -0.0056203440154187
     1.8557238262837856    1.2744029617353523    5.8286516452008215
   Fe   N 
    10     2
Direct
  0.7550346109241999  0.6799688700744123  0.9099093957107256
  0.2449653890758000  0.3200311299255877  0.0900906042892744
  0.8226178539688223  0.2044606055218063  0.8979438665643867
  0.1773821460311777  0.7955393944781939  0.1020561334356133
  0.6081091708703049  0.3909067093523054  0.3016274221335479
  0.3918908291296951  0.6090932906476946  0.6983725778664522
  0.4344110951933965  0.1352234018323563  0.6942852372961090
  0.5655889048066034  0.8647765981676436  0.3057147627038910
  0.0000000000000000 -0.0000000000000000  0.5000000000000000
  0.0000000000000000  0.5000000000000000  0.5000000000000000
  0.8980282496108594  0.0987053836630687  0.2105189012303865
  0.1019717503891407  0.9012946163369314  0.7894810987696135
 
  0.00000000E+00  0.00000000E+00  0.00000000E+00
  0.00000000E+00  0.00000000E+00  0.00000000E+00
  0.00000000E+00  0.00000000E+00  0.00000000E+00
  0.00000000E+00  0.00000000E+00  0.00000000E+00
  0.00000000E+00  0.00000000E+00  0.00000000E+00
  0.00000000E+00  0.00000000E+00  0.00000000E+00
  0.00000000E+00  0.00000000E+00  0.00000000E+00
  0.00000000E+00  0.00000000E+00  0.00000000E+00
  0.00000000E+00  0.00000000E+00  0.00000000E+00
  0.00000000E+00  0.00000000E+00  0.00000000E+00
  0.00000000E+00  0.00000000E+00  0.00000000E+00
  0.00000000E+00  0.00000000E+00  0.00000000E+00
