#63 (C m c m)                           
   2.86012999845265     
    -0.4999310170931490    2.3285974527486903   -0.0000000000000000
    -0.4999310170931490   -2.3285974527486903    0.0000000000000000
     0.0000000000000000    0.0000000000000000    1.0195170222506627
   Fe   B 
     4     2
Direct
  0.2993539305978982  0.7006460694021019  0.2500000000000000
  0.7006460694021019  0.2993539305978982  0.7500000000000000
  0.0851545815823489  0.9148454184176510  0.2500000000000000
  0.9148454184176510  0.0851545815823489  0.7500000000000000
  0.4621230116950544  0.5378769883049456  0.2500000000000000
  0.5378769883049456  0.4621230116950544  0.7500000000000000
 
  0.00000000E+00  0.00000000E+00  0.00000000E+00
  0.00000000E+00  0.00000000E+00  0.00000000E+00
  0.00000000E+00  0.00000000E+00  0.00000000E+00
  0.00000000E+00  0.00000000E+00  0.00000000E+00
  0.00000000E+00  0.00000000E+00  0.00000000E+00
  0.00000000E+00  0.00000000E+00  0.00000000E+00
