#12 (C 2/m) [unique axis c] cell choice 
   9.73937002106263     
     0.0844830473624691    0.0000000000000000   -0.4112779635583278
    -0.4986281992356710    0.1461700343783890    0.0000549903423376
     0.4986281992356710    0.1461700343783890   -0.0000549903423376
   Fe   B 
     4     2
Direct
  0.7861352369515533  0.0745061657618256  0.9254938342381744
  0.2138647630484468  0.9254938342381744  0.0745061657618256
  0.3322801395560626  0.6491274357697813  0.3508725642302188
  0.6677198604439375  0.3508725642302188  0.6491274357697813
  0.1324061013657050  0.2710854724974389  0.7289145275025611
  0.8675938986342950  0.7289145275025611  0.2710854724974389
 
  0.00000000E+00  0.00000000E+00  0.00000000E+00
  0.00000000E+00  0.00000000E+00  0.00000000E+00
  0.00000000E+00  0.00000000E+00  0.00000000E+00
  0.00000000E+00  0.00000000E+00  0.00000000E+00
  0.00000000E+00  0.00000000E+00  0.00000000E+00
  0.00000000E+00  0.00000000E+00  0.00000000E+00
