#140-I4/m2/c2/m                         
   1.00000000143991     
     5.0390153498642842    0.0000000000000000   -0.0000000000000000
     0.0000000000000000    5.0390153498642842    0.0000000000000000
     0.0000000000000000    0.0000000000000000    4.2223037435955861
   Fe   B 
     8     4
Direct
  0.1663771564478287  0.6663771564478288  0.0000000000000000
  0.1663771564478287  0.3336228435521713  0.5000000000000000
  0.8336228435521712  0.6663771564478288  0.5000000000000000
  0.8336228435521712  0.3336228435521713 -0.0000000000000000
  0.3336228435521713  0.8336228435521712  0.5000000000000000
  0.3336228435521713  0.1663771564478287  0.0000000000000000
  0.6663771564478288  0.8336228435521712 -0.0000000000000000
  0.6663771564478288  0.1663771564478287  0.5000000000000000
  0.0000000000000000 -0.0000000000000000  0.2500000000000000
  0.0000000000000000 -0.0000000000000000  0.7500000000000000
  0.5000000000000000  0.5000000000000000  0.7500000000000000
  0.5000000000000000  0.5000000000000000  0.2500000000000000
 
  0.00000000E+00  0.00000000E+00  0.00000000E+00
  0.00000000E+00  0.00000000E+00  0.00000000E+00
  0.00000000E+00  0.00000000E+00  0.00000000E+00
  0.00000000E+00  0.00000000E+00  0.00000000E+00
  0.00000000E+00  0.00000000E+00  0.00000000E+00
  0.00000000E+00  0.00000000E+00  0.00000000E+00
  0.00000000E+00  0.00000000E+00  0.00000000E+00
  0.00000000E+00  0.00000000E+00  0.00000000E+00
  0.00000000E+00  0.00000000E+00  0.00000000E+00
  0.00000000E+00  0.00000000E+00  0.00000000E+00
  0.00000000E+00  0.00000000E+00  0.00000000E+00
  0.00000000E+00  0.00000000E+00  0.00000000E+00
