#12 (C 2/m) [unique axis c] cell choice 
   7.92934000437471     
     0.4121872195291271    0.0000000000000000   -0.6028433626209345
    -0.4993213253323531    0.1828090318613080   -0.0000558318465281
     0.4993213253323531    0.1828090318613080    0.0000558318465281
   Fe   B 
     4     2
Direct
  0.6394176039082149  0.9154639866075528  0.0845360133924472
  0.3605823960917850  0.0845360133924472  0.9154639866075528
  0.0792510987700104  0.6724908390940786  0.3275091609059216
  0.9207489012299894  0.3275091609059216  0.6724908390940786
  0.3394748551682202  0.3722703692163800  0.6277296307836200
  0.6605251448317797  0.6277296307836200  0.3722703692163800
 
  0.00000000E+00  0.00000000E+00  0.00000000E+00
  0.00000000E+00  0.00000000E+00  0.00000000E+00
  0.00000000E+00  0.00000000E+00  0.00000000E+00
  0.00000000E+00  0.00000000E+00  0.00000000E+00
  0.00000000E+00  0.00000000E+00  0.00000000E+00
  0.00000000E+00  0.00000000E+00  0.00000000E+00
