#87-I4/m                                
   1.00000000105776     
     5.0383342527946917    0.0000000351869886   -0.0000000000000000
    -0.0000000351869886    5.0383342527946917    0.0000000000000000
    -0.0000000000000000   -0.0000000000000000    4.2251560237992161
   Fe   B 
     8     4
Direct
  0.8332843592627731  0.3339764437348289 -0.0000000000000000
  0.1667156407372270  0.6660235562651711 -0.0000000000000000
  0.6660235562651711  0.8332843592627731 -0.0000000000000000
  0.3339764437348289  0.1667156407372270 -0.0000000000000000
  0.3332843592627732  0.8339764437348289  0.5000000000000000
  0.6667156407372269  0.1660235562651711  0.5000000000000000
  0.1660235562651711  0.3332843592627732  0.5000000000000000
  0.8339764437348289  0.6667156407372269  0.5000000000000000
  0.0000000000000000 -0.0000000000000000  0.2483115729158700
  0.0000000000000000 -0.0000000000000000  0.7516884270841301
  0.5000000000000000  0.5000000000000000  0.7483115729158699
  0.5000000000000000  0.5000000000000000  0.2516884270841300
 
  0.00000000E+00  0.00000000E+00  0.00000000E+00
  0.00000000E+00  0.00000000E+00  0.00000000E+00
  0.00000000E+00  0.00000000E+00  0.00000000E+00
  0.00000000E+00  0.00000000E+00  0.00000000E+00
  0.00000000E+00  0.00000000E+00  0.00000000E+00
  0.00000000E+00  0.00000000E+00  0.00000000E+00
  0.00000000E+00  0.00000000E+00  0.00000000E+00
  0.00000000E+00  0.00000000E+00  0.00000000E+00
  0.00000000E+00  0.00000000E+00  0.00000000E+00
  0.00000000E+00  0.00000000E+00  0.00000000E+00
  0.00000000E+00  0.00000000E+00  0.00000000E+00
  0.00000000E+00  0.00000000E+00  0.00000000E+00
