#139-I4/m2/m2/m                         
  0.999999999637634     
     6.0951351592917664    0.0000000000000000    0.0000000000000000
     0.0000000000000000    6.0951351592917664    0.0000000000000000
     0.0000000000000000    0.0000000000000000    4.7574838610181738
   Fe   Sc
    12     2
Direct
  0.3111401504292814  0.3111401504292814  0.0000000000000000
  0.3111401504292814  0.6888598495707186  0.0000000000000000
  0.6888598495707186  0.3111401504292814  0.0000000000000000
  0.6888598495707186  0.6888598495707186  0.0000000000000000
  0.8111401504292814  0.8111401504292814  0.5000000000000000
  0.8111401504292814  0.1888598495707186  0.5000000000000000
  0.1888598495707186  0.8111401504292814  0.5000000000000000
  0.1888598495707186  0.1888598495707186  0.5000000000000000
  0.0000000000000000  0.5000000000000000  0.2500000000000000
  0.0000000000000000  0.5000000000000000  0.7500000000000000
  0.5000000000000000  0.0000000000000000  0.7500000000000000
  0.5000000000000000  0.0000000000000000  0.2500000000000000
  0.0000000000000000  0.0000000000000000  0.0000000000000000
  0.5000000000000000  0.5000000000000000  0.5000000000000000
 
  0.00000000E+00  0.00000000E+00  0.00000000E+00
  0.00000000E+00  0.00000000E+00  0.00000000E+00
  0.00000000E+00  0.00000000E+00  0.00000000E+00
  0.00000000E+00  0.00000000E+00  0.00000000E+00
  0.00000000E+00  0.00000000E+00  0.00000000E+00
  0.00000000E+00  0.00000000E+00  0.00000000E+00
  0.00000000E+00  0.00000000E+00  0.00000000E+00
  0.00000000E+00  0.00000000E+00  0.00000000E+00
  0.00000000E+00  0.00000000E+00  0.00000000E+00
  0.00000000E+00  0.00000000E+00  0.00000000E+00
  0.00000000E+00  0.00000000E+00  0.00000000E+00
  0.00000000E+00  0.00000000E+00  0.00000000E+00
  0.00000000E+00  0.00000000E+00  0.00000000E+00
  0.00000000E+00  0.00000000E+00  0.00000000E+00
