#8-C1m1                                 
   1.00000000076996     
     8.2419701749524812    0.0000000000000000   -0.0023691124099513
     0.0000000000000000    4.8110246203342797    0.0000000000000000
    -1.3912773310899389    0.0000000000000000    4.5457908611215085
   Fe   Sc
    12     2
Direct
  0.5757593183353293  0.2469066386329501  0.4952287087843814
  0.5757593183353293  0.7530933613670499  0.4952287087843814
  0.0757593183353293  0.7469066386329501  0.4952287087843814
  0.0757593183353293  0.2530933613670499  0.4952287087843814
  0.8185428623046107  0.0000000000000000  0.4057369501516064
  0.3185428623046107  0.5000000000000000  0.4057369501516064
  0.5711521117846416  0.0000000000000000  0.0049582129249686
  0.0711521117846416  0.5000000000000000  0.0049582129249686
  0.3416344718604947  0.0000000000000000  0.6069333519632423
  0.8416344718604947  0.5000000000000000  0.6069333519632423
  0.8765817029931782  0.0000000000000000  0.9274751705608253
  0.3765817029931782  0.5000000000000000  0.9274751705608253
  0.2348602143864298  0.0000000000000000  0.0644488968305907
  0.7348602143864298  0.5000000000000000  0.0644488968305907
 
  0.00000000E+00  0.00000000E+00  0.00000000E+00
  0.00000000E+00  0.00000000E+00  0.00000000E+00
  0.00000000E+00  0.00000000E+00  0.00000000E+00
  0.00000000E+00  0.00000000E+00  0.00000000E+00
  0.00000000E+00  0.00000000E+00  0.00000000E+00
  0.00000000E+00  0.00000000E+00  0.00000000E+00
  0.00000000E+00  0.00000000E+00  0.00000000E+00
  0.00000000E+00  0.00000000E+00  0.00000000E+00
  0.00000000E+00  0.00000000E+00  0.00000000E+00
  0.00000000E+00  0.00000000E+00  0.00000000E+00
  0.00000000E+00  0.00000000E+00  0.00000000E+00
  0.00000000E+00  0.00000000E+00  0.00000000E+00
  0.00000000E+00  0.00000000E+00  0.00000000E+00
  0.00000000E+00  0.00000000E+00  0.00000000E+00
