#12-C12/m1                              
   1.00000000058472     
     8.8054913145766829    0.0000000000000000   -0.0187532858425434
     0.0000000000000000    4.0900324016889753    0.0000000000000000
    -0.4184862145896354    0.0000000000000000    4.8542317401611763
   Fe   Sc
    12     2
Direct
  0.2051560518619482  0.0000000000000000  0.8558677170220079
  0.7948439481380447  0.0000000000000000  0.1441322829779921
  0.7051560518619553  0.5000000000000000  0.8558677170220079
  0.2948439481380518  0.5000000000000000  0.1441322829779921
  0.0791564520993546  0.0000000000000000  0.3085381132244720
  0.9208435479006454  0.0000000000000000  0.6914618867755351
  0.5791564520993546  0.5000000000000000  0.3085381132244720
  0.4208435479006454  0.5000000000000000  0.6914618867755351
  0.6479985189490804  0.0000000000000000  0.5585899122198299
  0.3520014810509196  0.0000000000000000  0.4414100877801701
  0.1479985189490804  0.5000000000000000  0.5585899122198299
  0.8520014810509196  0.5000000000000000  0.4414100877801701
  0.0000000000000000  0.5000000000000000  0.0000000000000000
  0.5000000000000000  0.0000000000000000  0.0000000000000000
 
  0.00000000E+00  0.00000000E+00  0.00000000E+00
  0.00000000E+00  0.00000000E+00  0.00000000E+00
  0.00000000E+00  0.00000000E+00  0.00000000E+00
  0.00000000E+00  0.00000000E+00  0.00000000E+00
  0.00000000E+00  0.00000000E+00  0.00000000E+00
  0.00000000E+00  0.00000000E+00  0.00000000E+00
  0.00000000E+00  0.00000000E+00  0.00000000E+00
  0.00000000E+00  0.00000000E+00  0.00000000E+00
  0.00000000E+00  0.00000000E+00  0.00000000E+00
  0.00000000E+00  0.00000000E+00  0.00000000E+00
  0.00000000E+00  0.00000000E+00  0.00000000E+00
  0.00000000E+00  0.00000000E+00  0.00000000E+00
  0.00000000E+00  0.00000000E+00  0.00000000E+00
  0.00000000E+00  0.00000000E+00  0.00000000E+00
