#187-P-6m2                              
  0.999999999442081     
     4.6635647672587384    0.0000000000000000    0.0000000000000000
    -2.3317823836293692    4.0387655606401305    0.0000000000000000
     0.0000000000000000    0.0000000000000000    4.7604253698229471
   Fe   Sc
     6     1
Direct
  0.3333299999999966  0.6666700000000034  0.2479540819643233
  0.3333299999999966  0.6666600000000003  0.7520459180356767
  0.8316243478551328  0.1683756521448672  0.5000000000000000
  0.8316243478551328  0.6632486957102657  0.5000000000000000
  0.3367513042897343  0.1683756521448672  0.5000000000000000
  0.6666700000000034  0.3333299999999966  0.0000000000000000
  0.0000000000000000  0.0000000000000000  0.0000000000000000
 
  0.00000000E+00  0.00000000E+00  0.00000000E+00
  0.00000000E+00  0.00000000E+00  0.00000000E+00
  0.00000000E+00  0.00000000E+00  0.00000000E+00
  0.00000000E+00  0.00000000E+00  0.00000000E+00
  0.00000000E+00  0.00000000E+00  0.00000000E+00
  0.00000000E+00  0.00000000E+00  0.00000000E+00
  0.00000000E+00  0.00000000E+00  0.00000000E+00
