#183-P6mm                               
   1.00000000107751     
     4.7163539315038010    0.0000000000000000    0.0000000000000000
    -2.3581769657519005    4.0844823179209016    0.0000000000000000
     0.0000000000000000    0.0000000000000000    4.6510744876680539
   Fe   Sc
     6     1
Direct
  0.5000000000000000  0.0000000000000000  0.4454631690187725
  0.5000000000000000  0.5000000000000000  0.4454631690187725
  0.0000000000000000  0.5000000000000000  0.4454631690187725
  0.3333299999999966  0.6666700000000034  0.9351575621937087
  0.6666600000000003  0.3333299999999966  0.9351575621937087
  0.0000000000000000  0.0000000000000000  0.6518060209175971
  0.0000000000000000  0.0000000000000000  0.1414793476386649
 
  0.00000000E+00  0.00000000E+00  0.00000000E+00
  0.00000000E+00  0.00000000E+00  0.00000000E+00
  0.00000000E+00  0.00000000E+00  0.00000000E+00
  0.00000000E+00  0.00000000E+00  0.00000000E+00
  0.00000000E+00  0.00000000E+00  0.00000000E+00
  0.00000000E+00  0.00000000E+00  0.00000000E+00
  0.00000000E+00  0.00000000E+00  0.00000000E+00
