#8-C1m1                                 
   1.00000000044988     
     4.7710204877582747    0.0000000000000000    0.0033356506845222
     0.0000000000000000    8.1914564509694472    0.0000000000000000
    -0.4063935164652694    0.0000000000000000    4.5897729859522327
   Fe   Sc
    12     2
Direct
  0.6426915176300909  0.2521249641878924  0.4294593314035211
  0.6426915176300909  0.7478750358121076  0.4294593314035211
  0.1426915176300909  0.7521249641878924  0.4294593314035211
  0.1426915176300909  0.2478750358121076  0.4294593314035211
  0.3867194617445833  0.0000000000000000  0.4269327823648439
  0.8867194617445833  0.5000000000000000  0.4269327823648439
  0.4213448885034552  0.1666348690412676  0.9326385000035131
  0.4213448885034552  0.8333651309587324  0.9326385000035131
  0.9213448885034552  0.6666348690412676  0.9326385000035131
  0.9213448885034552  0.3333651309587324  0.9326385000035131
  0.8519886272107158  0.0000000000000000  0.2284746978523842
  0.3519886272107158  0.5000000000000000  0.2284746978523842
  0.9188490987776134  0.0000000000000000  0.7454668569686973
  0.4188490987776134  0.5000000000000000  0.7454668569686973
 
  0.00000000E+00  0.00000000E+00  0.00000000E+00
  0.00000000E+00  0.00000000E+00  0.00000000E+00
  0.00000000E+00  0.00000000E+00  0.00000000E+00
  0.00000000E+00  0.00000000E+00  0.00000000E+00
  0.00000000E+00  0.00000000E+00  0.00000000E+00
  0.00000000E+00  0.00000000E+00  0.00000000E+00
  0.00000000E+00  0.00000000E+00  0.00000000E+00
  0.00000000E+00  0.00000000E+00  0.00000000E+00
  0.00000000E+00  0.00000000E+00  0.00000000E+00
  0.00000000E+00  0.00000000E+00  0.00000000E+00
  0.00000000E+00  0.00000000E+00  0.00000000E+00
  0.00000000E+00  0.00000000E+00  0.00000000E+00
  0.00000000E+00  0.00000000E+00  0.00000000E+00
  0.00000000E+00  0.00000000E+00  0.00000000E+00
