#166-R-32/m(hexagonalaxes)              
   1.00000000007343     
     4.1070919896778273    0.0000000000000000    0.0000000000000000
    -2.0535459948389136    3.5568459987405743    0.0000000000000000
     0.0000000000000000    0.0000000000000000   17.9457385919667516
   Fe   Sc
    18     3
Direct
  0.0000000000000000  0.0000000000000000  0.2214829145463213
  0.0000000000000000  0.0000000000000000  0.7785170854536787
  0.3333299999999966  0.6666700000000034  0.8881529145463176
  0.3333299999999966  0.6666700000000034  0.4451870854536821
  0.6666700000000034  0.3333299999999966  0.5548129145463179
  0.6666700000000034  0.3333299999999966  0.1118470854536824
  0.0000000000000000  0.0000000000000000  0.0691819089604238
  0.0000000000000000  0.0000000000000000  0.9308180910395762
  0.3333299999999966  0.6666700000000034  0.7358519089604272
  0.3333299999999966  0.6666700000000034  0.5974880910395726
  0.6666700000000034  0.3333299999999966  0.4025119089604274
  0.6666700000000034  0.3333299999999966  0.2641480910395728
  0.0000000000000000  0.0000000000000000  0.3526307212790769
  0.0000000000000000  0.0000000000000000  0.6473692787209231
  0.3333299999999966  0.6666700000000034  0.0193007212790803
  0.3333299999999966  0.6666700000000034  0.3140392787209194
  0.6666700000000034  0.3333299999999966  0.6859607212790806
  0.6666700000000034  0.3333299999999966  0.9806992787209197
  0.0000000000000000  0.0000000000000000  0.5000000000000000
  0.3333299999999966  0.6666700000000034  0.1666700000000034
  0.6666700000000034  0.3333299999999966  0.8333299999999966
 
  0.00000000E+00  0.00000000E+00  0.00000000E+00
  0.00000000E+00  0.00000000E+00  0.00000000E+00
  0.00000000E+00  0.00000000E+00  0.00000000E+00
  0.00000000E+00  0.00000000E+00  0.00000000E+00
  0.00000000E+00  0.00000000E+00  0.00000000E+00
  0.00000000E+00  0.00000000E+00  0.00000000E+00
  0.00000000E+00  0.00000000E+00  0.00000000E+00
  0.00000000E+00  0.00000000E+00  0.00000000E+00
  0.00000000E+00  0.00000000E+00  0.00000000E+00
  0.00000000E+00  0.00000000E+00  0.00000000E+00
  0.00000000E+00  0.00000000E+00  0.00000000E+00
  0.00000000E+00  0.00000000E+00  0.00000000E+00
  0.00000000E+00  0.00000000E+00  0.00000000E+00
  0.00000000E+00  0.00000000E+00  0.00000000E+00
  0.00000000E+00  0.00000000E+00  0.00000000E+00
  0.00000000E+00  0.00000000E+00  0.00000000E+00
  0.00000000E+00  0.00000000E+00  0.00000000E+00
  0.00000000E+00  0.00000000E+00  0.00000000E+00
  0.00000000E+00  0.00000000E+00  0.00000000E+00
  0.00000000E+00  0.00000000E+00  0.00000000E+00
  0.00000000E+00  0.00000000E+00  0.00000000E+00
