#182 (P 63 2 2)                         
   4.65823000671967     
     0.9980735661393229    0.0000000000000000   -0.0000000000000000
    -0.4990367830696614    0.8643566616717104   -0.0000000000000000
    -0.0000000000000000    0.0000000000000000    0.9258912840626814
   Fe   N 
     6     2
Direct
  0.6730459945964495 -0.0000000000000000  0.0000000000000000
  0.6730459945965034  0.6730409945965559  0.5000000000000000
  0.0000000000000540  0.6730409945965559  0.0000000000000000
  0.3269640054035536 -0.0000000000000000  0.5000000000000000
  0.3269640054034997  0.3269590054034441  0.0000000000000000
 -0.0000000000000540  0.3269590054034441  0.5000000000000000
  0.3333349999999982  0.6666700000000034  0.2500000000000000
  0.6666650000000018  0.3333299999999966  0.7500000000000000
 
  0.00000000E+00  0.00000000E+00  0.00000000E+00
  0.00000000E+00  0.00000000E+00  0.00000000E+00
  0.00000000E+00  0.00000000E+00  0.00000000E+00
  0.00000000E+00  0.00000000E+00  0.00000000E+00
  0.00000000E+00  0.00000000E+00  0.00000000E+00
  0.00000000E+00  0.00000000E+00  0.00000000E+00
  0.00000000E+00  0.00000000E+00  0.00000000E+00
  0.00000000E+00  0.00000000E+00  0.00000000E+00
