#187 (P -6 m 2)                         
   2.58958999965068     
     1.0002754309022264   -0.0000000000000000    0.0000000000000000
    -0.5001377154511132    0.8662635298246713    0.0000000000000000
     0.0000000000000000    0.0000000000000000    2.5093667224218357
   Fe   N 
     3     1
Direct
  0.6666700000000034  0.3333299999999966  0.8120487644746733
  0.6666700000000034  0.3333399999999997  0.1879512355253267
 -0.0000000000000000  0.0000000000000000  0.5000000000000000
 -0.0000000000000000  0.0000000000000000  0.0000000000000000
 
  0.00000000E+00  0.00000000E+00  0.00000000E+00
  0.00000000E+00  0.00000000E+00  0.00000000E+00
  0.00000000E+00  0.00000000E+00  0.00000000E+00
  0.00000000E+00  0.00000000E+00  0.00000000E+00
