#63 (C m c m)                           
   3.76664999592559     
    -0.4989272176554935    1.4870891175222689    0.0000000000000000
    -0.4989272176554935   -1.4870891175222689   -0.0000000000000000
     0.0000000000000000   -0.0000000000000000    1.0194680484321381
   Fe   N 
     6     2
Direct
  0.9135199567495115  0.0864800432504884  0.2500000000000000
  0.0864800432504884  0.9135199567495115  0.7500000000000000
  0.2442781347211376  0.7557218652788623  0.2500000000000000
  0.7557218652788623  0.2442781347211376  0.7500000000000000
  0.5928611373209024  0.4071388626790977  0.2500000000000000
  0.4071388626790977  0.5928611373209024  0.7500000000000000
  0.4125368618899058  0.5874631381100942  0.2500000000000000
  0.5874631381100942  0.4125368618899058  0.7500000000000000
 
  0.00000000E+00  0.00000000E+00  0.00000000E+00
  0.00000000E+00  0.00000000E+00  0.00000000E+00
  0.00000000E+00  0.00000000E+00  0.00000000E+00
  0.00000000E+00  0.00000000E+00  0.00000000E+00
  0.00000000E+00  0.00000000E+00  0.00000000E+00
  0.00000000E+00  0.00000000E+00  0.00000000E+00
  0.00000000E+00  0.00000000E+00  0.00000000E+00
  0.00000000E+00  0.00000000E+00  0.00000000E+00
