#59 (P m m n) [origin choice 2]         
   7.98301000366220     
     0.0000000000000000    0.4721412259603180    0.0000000000000000
     0.9976571109520214    0.0000000000000000    0.0000000000000000
     0.0000000000000000    0.0000000000000000   -0.3363600740607037
   Fe   N 
     6     2
Direct
  0.2500000000000000  0.4228390650960582  0.7575630587326164
  0.7500000000000000  0.9228390650960580  0.2424369412673837
  0.7500000000000000  0.5771609349039420  0.2424369412673837
  0.2500000000000000  0.0771609349039419  0.7575630587326164
  0.7500000000000000  0.2500000000000000  0.2586932338246876
  0.2500000000000000  0.7500000000000000  0.7413067661753124
  0.2500000000000000  0.2500000000000000  0.2574086243627500
  0.7500000000000000  0.7500000000000000  0.7425913756372499
 
  0.00000000E+00  0.00000000E+00  0.00000000E+00
  0.00000000E+00  0.00000000E+00  0.00000000E+00
  0.00000000E+00  0.00000000E+00  0.00000000E+00
  0.00000000E+00  0.00000000E+00  0.00000000E+00
  0.00000000E+00  0.00000000E+00  0.00000000E+00
  0.00000000E+00  0.00000000E+00  0.00000000E+00
  0.00000000E+00  0.00000000E+00  0.00000000E+00
  0.00000000E+00  0.00000000E+00  0.00000000E+00
