#12 (C 2/m) [unique axis c] cell choice 
   8.36189999758553     
     0.0999510003865006    0.0000000000000000   -0.3051060197651797
    -0.5027981466640703    0.2253378621253918    0.0037314764172663
     0.5027981466640703    0.2253378621253918   -0.0037314764172663
   Fe   N 
     3     1
Direct
 -0.0000000000000000  0.5000000000000000  0.5000000000000000
  0.3278370451124735  0.8272972488558029  0.1727027511441972
  0.6721629548875264  0.1727027511441972  0.8272972488558029
 -0.0000000000000000 -0.0000000000000000  0.0000000000000000
 
  0.00000000E+00  0.00000000E+00  0.00000000E+00
  0.00000000E+00  0.00000000E+00  0.00000000E+00
  0.00000000E+00  0.00000000E+00  0.00000000E+00
  0.00000000E+00  0.00000000E+00  0.00000000E+00
