#187 (P -6 m 2)                         
   2.60151999233457     
     1.0008155005838333   -0.0000000000000000    0.0000000000000000
    -0.5004077502919166    0.8667312432342762   -0.0000000000000000
     0.0000000000000000    0.0000000000000000    2.5367039332892030
   Fe   N 
     3     1
Direct
  0.6666600000000003  0.3333399999999997  0.5000000000000000
  0.3333299999999966  0.6666700000000034  0.8135635227209663
  0.3333299999999966  0.6666700000000034  0.1864364772790337
 -0.0000000000000000  0.0000000000000000 -0.0000000000000000
 
  0.00000000E+00  0.00000000E+00  0.00000000E+00
  0.00000000E+00  0.00000000E+00  0.00000000E+00
  0.00000000E+00  0.00000000E+00  0.00000000E+00
  0.00000000E+00  0.00000000E+00  0.00000000E+00
