#139-I4/m2/m2/m                         
  0.999999998106368     
     2.8094482440153521    0.0000000000000000    0.0000000000000000
     0.0000000000000000    2.8094482440153521    0.0000000000000000
     0.0000000000000000    0.0000000000000000   10.2568241915735179
   Fe   N 
     6     2
Direct
 -0.0000000000000000  0.0000000000000000  0.3194000684355237
 -0.0000000000000000  0.0000000000000000  0.6805999315644763
  0.5000000000000000  0.5000000000000000  0.8194000684355237
  0.5000000000000000  0.5000000000000000  0.1805999315644763
 -0.0000000000000000  0.0000000000000000 -0.0000000000000000
  0.5000000000000000  0.5000000000000000  0.5000000000000000
  0.0000000000000000 -0.0000000000000000  0.5000000000000000
  0.5000000000000000  0.5000000000000000 -0.0000000000000000
 
  0.00000000E+00  0.00000000E+00  0.00000000E+00
  0.00000000E+00  0.00000000E+00  0.00000000E+00
  0.00000000E+00  0.00000000E+00  0.00000000E+00
  0.00000000E+00  0.00000000E+00  0.00000000E+00
  0.00000000E+00  0.00000000E+00  0.00000000E+00
  0.00000000E+00  0.00000000E+00  0.00000000E+00
  0.00000000E+00  0.00000000E+00  0.00000000E+00
  0.00000000E+00  0.00000000E+00  0.00000000E+00
