#15 (C 2/c) [unique axis c]             
   4.61125000551373     
     0.3253106358957799    0.0000000000000000   -0.9511368354309269
    -0.4994780320548919    0.8674924760167475    0.0001646477288073
     0.4994780320548919    0.8674924760167475   -0.0001646477288073
   Fe   N 
     6     2
Direct
  0.5000000000000000  0.5000000000000000 -0.0000000000000000
 -0.0000000000000000  0.0000000000000000  0.5000000000000000
  0.0008324633999078  0.6756271343960107  0.1541399328359261
  0.4991675366000922  0.1541399328359261  0.6756271343960107
  0.9991675366000923  0.3243728656039893  0.8458600671640738
  0.5008324633999077  0.8458600671640738  0.3243728656039893
  0.2500000000000000  0.4149542746567383  0.4149542746567383
  0.7500000000000000  0.5850457253432618  0.5850457253432618
 
  0.00000000E+00  0.00000000E+00  0.00000000E+00
  0.00000000E+00  0.00000000E+00  0.00000000E+00
  0.00000000E+00  0.00000000E+00  0.00000000E+00
  0.00000000E+00  0.00000000E+00  0.00000000E+00
  0.00000000E+00  0.00000000E+00  0.00000000E+00
  0.00000000E+00  0.00000000E+00  0.00000000E+00
  0.00000000E+00  0.00000000E+00  0.00000000E+00
  0.00000000E+00  0.00000000E+00  0.00000000E+00
