#167-R-32/c(hexagonalaxes)              
  0.999999999577501     
     4.6436987852431653    0.0000000000000000   -0.0000000000000000
    -2.3218493926215826    4.0215611155435189   -0.0000000000000000
    -0.0000000000000000   -0.0000000000000000   12.8720437973788560
   Fe   N 
    18     6
Direct
  0.6712367932497362 -0.0000000000000000  0.2500000000000000
  0.0000000000000000  0.6712367932497362  0.2500000000000000
  0.3287632067502638  0.3287632067502638  0.2500000000000000
  0.3287632067502638  0.0000000000000000  0.7500000000000000
 -0.0000000000000000  0.3287632067502638  0.7500000000000000
  0.6712367932497362  0.6712367932497362  0.7500000000000000
  0.0045667932497328  0.6666700000000034  0.9166700000000034
  0.3333299999999966  0.3379067932497325  0.9166700000000034
  0.6620932067502675  0.9954332067502673  0.9166700000000034
  0.6620932067502675  0.6666700000000034  0.4166700000000034
  0.3333299999999966  0.9954332067502673  0.4166700000000034
  0.0045667932497328  0.3379067932497325  0.4166700000000034
  0.3379067932497325  0.3333299999999966  0.5833299999999966
  0.6666700000000034  0.0045667932497328  0.5833299999999966
  0.9954332067502673  0.6620932067502675  0.5833299999999966
  0.9954332067502673  0.3333299999999966  0.0833299999999966
  0.6666700000000034  0.6620932067502675  0.0833299999999966
  0.3379067932497325  0.0045667932497328  0.0833299999999966
 -0.0000000000000000 -0.0000000000000000 -0.0000000000000000
 -0.0000000000000000 -0.0000000000000000  0.5000000000000000
  0.3333299999999966  0.6666700000000034  0.6666700000000034
  0.3333299999999966  0.6666700000000034  0.1666700000000034
  0.6666700000000034  0.3333299999999966  0.3333299999999966
  0.6666700000000034  0.3333299999999966  0.8333299999999966
 
  0.00000000E+00  0.00000000E+00  0.00000000E+00
  0.00000000E+00  0.00000000E+00  0.00000000E+00
  0.00000000E+00  0.00000000E+00  0.00000000E+00
  0.00000000E+00  0.00000000E+00  0.00000000E+00
  0.00000000E+00  0.00000000E+00  0.00000000E+00
  0.00000000E+00  0.00000000E+00  0.00000000E+00
  0.00000000E+00  0.00000000E+00  0.00000000E+00
  0.00000000E+00  0.00000000E+00  0.00000000E+00
  0.00000000E+00  0.00000000E+00  0.00000000E+00
  0.00000000E+00  0.00000000E+00  0.00000000E+00
  0.00000000E+00  0.00000000E+00  0.00000000E+00
  0.00000000E+00  0.00000000E+00  0.00000000E+00
  0.00000000E+00  0.00000000E+00  0.00000000E+00
  0.00000000E+00  0.00000000E+00  0.00000000E+00
  0.00000000E+00  0.00000000E+00  0.00000000E+00
  0.00000000E+00  0.00000000E+00  0.00000000E+00
  0.00000000E+00  0.00000000E+00  0.00000000E+00
  0.00000000E+00  0.00000000E+00  0.00000000E+00
  0.00000000E+00  0.00000000E+00  0.00000000E+00
  0.00000000E+00  0.00000000E+00  0.00000000E+00
  0.00000000E+00  0.00000000E+00  0.00000000E+00
  0.00000000E+00  0.00000000E+00  0.00000000E+00
  0.00000000E+00  0.00000000E+00  0.00000000E+00
  0.00000000E+00  0.00000000E+00  0.00000000E+00
