#160 (R 3 m)                            
   2.63504999183583     
     0.0000009987197302    0.5764831799204775   -2.4850355848240242
     0.4992503113213793   -0.2882425886799669   -2.4850355849196659
    -0.4992483138819188   -0.2882425886799669   -2.4850355848308912
   Fe   N 
     3     1
Direct
  0.1643968312861788  0.1643988412861488  0.1643968312861764
  0.7271188755146570  0.7271235155145045  0.7271188755146460
  0.6020073151662170  0.6020067051662656  0.6020073151662201
  0.0000469780329383  0.0000469780330817  0.0000469780329486
 
  0.00000000E+00  0.00000000E+00  0.00000000E+00
  0.00000000E+00  0.00000000E+00  0.00000000E+00
  0.00000000E+00  0.00000000E+00  0.00000000E+00
  0.00000000E+00  0.00000000E+00  0.00000000E+00
