#40 (A m a 2)                           
   2.82748000146269     
     0.9936263156181250    0.0000000000000000    0.0000000000000000
     0.0000000000000000    2.2835300377944558    0.7859430015186505
     0.0000000000000000   -2.2835300377944558    0.7859430015186505
   Fe   N 
     6     2
Direct
  0.2500000000000000  0.7386263379701709  0.8925299477083147
  0.7500000000000000  0.8925299477083147  0.7386263379701709
  0.2500000000000000  0.4218241653650663  0.2620491646353117
  0.7500000000000000  0.2620491646353117  0.4218241653650663
  0.2500000000000000  0.2373122252080727  0.7518449830866312
  0.7500000000000000  0.7518449830866312  0.2373122252080727
  0.2500000000000000  0.0007023340833483  0.3365908419430714
  0.7500000000000000  0.3365908419430714  0.0007023340833483
 
  0.00000000E+00  0.00000000E+00  0.00000000E+00
  0.00000000E+00  0.00000000E+00  0.00000000E+00
  0.00000000E+00  0.00000000E+00  0.00000000E+00
  0.00000000E+00  0.00000000E+00  0.00000000E+00
  0.00000000E+00  0.00000000E+00  0.00000000E+00
  0.00000000E+00  0.00000000E+00  0.00000000E+00
  0.00000000E+00  0.00000000E+00  0.00000000E+00
  0.00000000E+00  0.00000000E+00  0.00000000E+00
