#12 (C 2/m) [unique axis c] cell choice 
   8.36671000956176     
     0.1833294247472632    0.0000000000000000   -0.6097722793927141
    -0.5005268802554531    0.2290116695374427    0.0008070370101798
     0.5005268802554531    0.2290116695374427   -0.0008070370101798
   Fe   N 
     6     2
Direct
  0.3240920464958650  0.6649274950184175  0.3350725049815825
  0.6759079535041350  0.3350725049815825  0.6649274950184175
  0.5000000000000000  0.0000000000000000 -0.0000000000000000
  0.8427722679036134  0.6611441082474274  0.3388558917525726
  0.1572277320963867  0.3388558917525726  0.6611441082474274
  0.0000000000000000  0.0000000000000000 -0.0000000000000000
  0.3237185896773850  0.1670225489479479  0.8329774510520521
  0.6762814103226150  0.8329774510520521  0.1670225489479479
 
  0.00000000E+00  0.00000000E+00  0.00000000E+00
  0.00000000E+00  0.00000000E+00  0.00000000E+00
  0.00000000E+00  0.00000000E+00  0.00000000E+00
  0.00000000E+00  0.00000000E+00  0.00000000E+00
  0.00000000E+00  0.00000000E+00  0.00000000E+00
  0.00000000E+00  0.00000000E+00  0.00000000E+00
  0.00000000E+00  0.00000000E+00  0.00000000E+00
  0.00000000E+00  0.00000000E+00  0.00000000E+00
