#71-I2/m2/m2/m                          
  0.999999999940726     
     7.9701297018397161    0.0000000000000000    0.0000000000000000
     0.0000000000000000    2.6844066298906846    0.0000000000000000
     0.0000000000000000    0.0000000000000000    3.7691378724579279
   Fe   N 
     6     2
Direct
  0.6727404204750637  0.5000000000000000  0.0000000000000000
  0.3272595795249365  0.5000000000000000 -0.0000000000000000
  0.1727404204750564  0.0000000000000000  0.5000000000000000
  0.8272595795249363  0.0000000000000000  0.5000000000000000
  0.5000000000000000 -0.0000000000000000  0.5000000000000000
  0.0000000000000000  0.5000000000000000 -0.0000000000000000
  0.0000000000000000  0.5000000000000000  0.5000000000000000
  0.5000000000000000 -0.0000000000000000 -0.0000000000000000
 
  0.00000000E+00  0.00000000E+00  0.00000000E+00
  0.00000000E+00  0.00000000E+00  0.00000000E+00
  0.00000000E+00  0.00000000E+00  0.00000000E+00
  0.00000000E+00  0.00000000E+00  0.00000000E+00
  0.00000000E+00  0.00000000E+00  0.00000000E+00
  0.00000000E+00  0.00000000E+00  0.00000000E+00
  0.00000000E+00  0.00000000E+00  0.00000000E+00
  0.00000000E+00  0.00000000E+00  0.00000000E+00
