#51-P21/m2/m2/a                         
  0.999999999490329     
     3.4994578283848226    0.0000000000000000    0.0000000000000000
     0.0000000000000000    3.4525971314863271    0.0000000000000000
     0.0000000000000000    0.0000000000000000    9.2260512635338685
   Fe   S 
     4     2
Direct
  0.2500000000000000  0.5000000000000000  0.4161900325778726
  0.7500000000000000  0.5000000000000000  0.5838099674221273
  0.2500000000000000 -0.0000000000000000  0.5917423822744389
  0.7500000000000000  0.0000000000000000  0.4082576177255611
  0.2500000000000000  0.0000000000000000  0.2576713641319827
  0.7500000000000000  0.0000000000000000  0.7423286358680173
 
  0.00000000E+00  0.00000000E+00  0.00000000E+00
  0.00000000E+00  0.00000000E+00  0.00000000E+00
  0.00000000E+00  0.00000000E+00  0.00000000E+00
  0.00000000E+00  0.00000000E+00  0.00000000E+00
  0.00000000E+00  0.00000000E+00  0.00000000E+00
  0.00000000E+00  0.00000000E+00  0.00000000E+00
