#12-C12/m1                              
  0.999999999919948     
    15.4588118714577689    0.0000000000000000   -0.0219023918905703
     0.0000000000000000    3.4569469169538762    0.0000000000000000
    -0.0755319401422353    0.0000000000000000    3.5016122420465114
   Fe   S 
     8     4
Direct
  0.9499865614095113 -0.0000000000000000  0.2449390603342259
  0.0500134385904957  0.0000000000000000  0.7550609396657740
  0.4499865614095044  0.5000000000000000  0.2449390603342259
  0.5500134385904887  0.5000000000000000  0.7550609396657740
  0.4439658711892154 -0.0000000000000000  0.7446590872655773
  0.5560341288107845  0.0000000000000000  0.2553409127344226
  0.9439658711892155  0.5000000000000000  0.7446590872655773
  0.0560341288107846  0.5000000000000000  0.2553409127344226
  0.6448021288078020  0.0000000000000000  0.7646851148205474
  0.3551978711921981  0.0000000000000000  0.2353148851794526
  0.1448021288078019  0.5000000000000000  0.7646851148205474
  0.8551978711921980  0.5000000000000000  0.2353148851794526
 
  0.00000000E+00  0.00000000E+00  0.00000000E+00
  0.00000000E+00  0.00000000E+00  0.00000000E+00
  0.00000000E+00  0.00000000E+00  0.00000000E+00
  0.00000000E+00  0.00000000E+00  0.00000000E+00
  0.00000000E+00  0.00000000E+00  0.00000000E+00
  0.00000000E+00  0.00000000E+00  0.00000000E+00
  0.00000000E+00  0.00000000E+00  0.00000000E+00
  0.00000000E+00  0.00000000E+00  0.00000000E+00
  0.00000000E+00  0.00000000E+00  0.00000000E+00
  0.00000000E+00  0.00000000E+00  0.00000000E+00
  0.00000000E+00  0.00000000E+00  0.00000000E+00
  0.00000000E+00  0.00000000E+00  0.00000000E+00
