#11-P121/m1                             
   1.00000000055877     
     3.4486030043805571    0.0000000000000000   -0.0051390542663706
     0.0000000000000000    3.5126224795590701    0.0000000000000000
    -0.1235126606487386    0.0000000000000000    7.8583515228391638
   Fe   S 
     4     2
Direct
  0.4957167153320842  0.2500000000000000  0.4024566296813427
  0.5042832846679159  0.7500000000000000  0.5975433703186571
  0.0047409559556971  0.2500000000000000  0.6098227668759604
  0.9952590440443030  0.7500000000000000  0.3901772331240398
  0.9883467420826195  0.2500000000000000  0.2160375565513720
  0.0116532579173805  0.7500000000000000  0.7839624434486279
 
  0.00000000E+00  0.00000000E+00  0.00000000E+00
  0.00000000E+00  0.00000000E+00  0.00000000E+00
  0.00000000E+00  0.00000000E+00  0.00000000E+00
  0.00000000E+00  0.00000000E+00  0.00000000E+00
  0.00000000E+00  0.00000000E+00  0.00000000E+00
  0.00000000E+00  0.00000000E+00  0.00000000E+00
