#2-P-1                                  
  0.999999999997754     
     4.9632464245953951    0.0113261097610803    0.0031909596674681
    -1.6882955630059502    6.0713824013104638    0.0106788683554004
    -0.0306986443704577   -1.2276409030417914    6.7760541662991685
   Fe   Ge
    10     6
Direct
  0.1501987527897342  0.1589345624531191  0.6114349307134077
  0.8498012472102658  0.8410654375468809  0.3885650692865923
  0.4006327127435654  0.8413872715472834  0.7166086406048606
  0.5993672872564346  0.1586127284527166  0.2833913593951394
  0.1154328560932996  0.8309000872251104  0.0577379840501067
  0.8845671439067004  0.1690999127748825  0.9422620159498933
  0.6110131555868676  0.8267388953736869  0.0475191726155373
  0.3889868444131324  0.1732611046263131  0.9524808273844627
  0.0000000000000000  0.5000000000000000  0.5000000000000000
  0.5000000000000000  0.5000000000000000  0.5000000000000000
  0.2434786989022157  0.5013720383549511  0.8658981075465704
  0.7565213010977843  0.4986279616450489  0.1341018924534296
  0.3352614534302774  0.7826963956009934  0.3520970128378877
  0.6647385465697226  0.2173036043990066  0.6479029871621123
  0.1147769241679342  0.2000235876015495  0.2612211472459123
  0.8852230758320658  0.7999764123984505  0.7387788527540877
 
  0.00000000E+00  0.00000000E+00  0.00000000E+00
  0.00000000E+00  0.00000000E+00  0.00000000E+00
  0.00000000E+00  0.00000000E+00  0.00000000E+00
  0.00000000E+00  0.00000000E+00  0.00000000E+00
  0.00000000E+00  0.00000000E+00  0.00000000E+00
  0.00000000E+00  0.00000000E+00  0.00000000E+00
  0.00000000E+00  0.00000000E+00  0.00000000E+00
  0.00000000E+00  0.00000000E+00  0.00000000E+00
  0.00000000E+00  0.00000000E+00  0.00000000E+00
  0.00000000E+00  0.00000000E+00  0.00000000E+00
  0.00000000E+00  0.00000000E+00  0.00000000E+00
  0.00000000E+00  0.00000000E+00  0.00000000E+00
  0.00000000E+00  0.00000000E+00  0.00000000E+00
  0.00000000E+00  0.00000000E+00  0.00000000E+00
  0.00000000E+00  0.00000000E+00  0.00000000E+00
  0.00000000E+00  0.00000000E+00  0.00000000E+00
