#71-I2/m2/m2/m                          
  0.999999999672487     
     5.0617230077270436    0.0000000000000000    0.0000000000000000
     0.0000000000000000    3.6353454278693489    0.0000000000000000
     0.0000000000000000    0.0000000000000000   11.6110373682317043
   Fe   Ge
    10     6
Direct
  0.2513076611754030  0.0000000000000000  0.8940844445267686
  0.2513076611754030  0.0000000000000000  0.1059155554732314
  0.7486923388245970  0.0000000000000000  0.1059155554732314
  0.7486923388245970  0.0000000000000000  0.8940844445267686
  0.7513076611754030  0.5000000000000000  0.3940844445267686
  0.7513076611754030  0.5000000000000000  0.6059155554732314
  0.2486923388245970  0.5000000000000000  0.6059155554732314
  0.2486923388245970  0.5000000000000000  0.3940844445267686
  0.5000000000000000  0.5000000000000000  0.0000000000000000
  0.0000000000000000  0.0000000000000000  0.5000000000000000
  0.5000000000000000  0.0000000000000000  0.5000000000000000
  0.0000000000000000  0.5000000000000000  0.0000000000000000
  0.0000000000000000  0.0000000000000000  0.2859228453421991
  0.0000000000000000  0.0000000000000000  0.7140771546578009
  0.5000000000000000  0.5000000000000000  0.7859228453421991
  0.5000000000000000  0.5000000000000000  0.2140771546578009
 
  0.00000000E+00  0.00000000E+00  0.00000000E+00
  0.00000000E+00  0.00000000E+00  0.00000000E+00
  0.00000000E+00  0.00000000E+00  0.00000000E+00
  0.00000000E+00  0.00000000E+00  0.00000000E+00
  0.00000000E+00  0.00000000E+00  0.00000000E+00
  0.00000000E+00  0.00000000E+00  0.00000000E+00
  0.00000000E+00  0.00000000E+00  0.00000000E+00
  0.00000000E+00  0.00000000E+00  0.00000000E+00
  0.00000000E+00  0.00000000E+00  0.00000000E+00
  0.00000000E+00  0.00000000E+00  0.00000000E+00
  0.00000000E+00  0.00000000E+00  0.00000000E+00
  0.00000000E+00  0.00000000E+00  0.00000000E+00
  0.00000000E+00  0.00000000E+00  0.00000000E+00
  0.00000000E+00  0.00000000E+00  0.00000000E+00
  0.00000000E+00  0.00000000E+00  0.00000000E+00
  0.00000000E+00  0.00000000E+00  0.00000000E+00
