#8-C1m1                                 
   1.00000000004804     
    12.8343815099319798    0.0000000000000000    0.0040903161421034
     0.0000000000000000    3.9059846031096499    0.0000000000000000
    -0.6459064384738579    0.0000000000000000    8.3352734316573951
   Fe   Ge
    20    12
Direct
  0.1315901823143051  0.0000000000000000  0.9261823267973810
  0.6315901823143051  0.5000000000000000  0.9261823267973810
  0.3159043232476364  0.0000000000000000  0.8001074016807053
  0.8159043232476364  0.5000000000000000  0.8001074016807053
  0.5273634954852966  0.0000000000000000  0.3379610468763801
  0.0273634954852966  0.5000000000000000  0.3379610468763801
  0.6708841190619097  0.0000000000000000  0.1051620499956201
  0.1708841190619097  0.5000000000000000  0.1051620499956201
  0.4741732561871075  0.0000000000000000  0.0196175226259072
  0.9741732561871075  0.5000000000000000  0.0196175226259072
  0.8637969639008531  0.0000000000000000  0.2561927695192239
  0.3637969639008531  0.5000000000000000  0.2561927695192239
  0.4934293176457203  0.0000000000000000  0.6843589713128395
  0.9934293176457203  0.5000000000000000  0.6843589713128395
  0.1706562076831659  0.0000000000000000  0.5909530498637352
  0.6706562076831659  0.5000000000000000  0.5909530498637352
  0.3464957878711914  0.0000000000000000  0.4491883252622628
  0.8464957878711914  0.5000000000000000  0.4491883252622628
  0.8282668908076687  0.0000000000000000  0.6257460562207768
  0.3282668908076687  0.5000000000000000  0.6257460562207768
  0.2991858263364904  0.0000000000000000  0.1068095148295427
  0.7991858263364904  0.5000000000000000  0.1068095148295427
  0.6795483293346152  0.0000000000000000  0.7865192779961845
  0.1795483293346152  0.5000000000000000  0.7865192779961845
  0.9398936209778910  0.0000000000000000  0.8621654425751260
  0.4398936209778910  0.5000000000000000  0.8621654425751260
  0.7067976171659325  0.0000000000000000  0.4007854357807616
  0.2067976171659325  0.5000000000000000  0.4007854357807616
  0.0496597456999694  0.0000000000000000  0.1762538328151564
  0.5496597456999694  0.5000000000000000  0.1762538328151564
  0.9878443162802384  0.0000000000000000  0.4985969758483932
  0.4878443162802384  0.5000000000000000  0.4985969758483932
 
  0.00000000E+00  0.00000000E+00  0.00000000E+00
  0.00000000E+00  0.00000000E+00  0.00000000E+00
  0.00000000E+00  0.00000000E+00  0.00000000E+00
  0.00000000E+00  0.00000000E+00  0.00000000E+00
  0.00000000E+00  0.00000000E+00  0.00000000E+00
  0.00000000E+00  0.00000000E+00  0.00000000E+00
  0.00000000E+00  0.00000000E+00  0.00000000E+00
  0.00000000E+00  0.00000000E+00  0.00000000E+00
  0.00000000E+00  0.00000000E+00  0.00000000E+00
  0.00000000E+00  0.00000000E+00  0.00000000E+00
  0.00000000E+00  0.00000000E+00  0.00000000E+00
  0.00000000E+00  0.00000000E+00  0.00000000E+00
  0.00000000E+00  0.00000000E+00  0.00000000E+00
  0.00000000E+00  0.00000000E+00  0.00000000E+00
  0.00000000E+00  0.00000000E+00  0.00000000E+00
  0.00000000E+00  0.00000000E+00  0.00000000E+00
  0.00000000E+00  0.00000000E+00  0.00000000E+00
  0.00000000E+00  0.00000000E+00  0.00000000E+00
  0.00000000E+00  0.00000000E+00  0.00000000E+00
  0.00000000E+00  0.00000000E+00  0.00000000E+00
  0.00000000E+00  0.00000000E+00  0.00000000E+00
  0.00000000E+00  0.00000000E+00  0.00000000E+00
  0.00000000E+00  0.00000000E+00  0.00000000E+00
  0.00000000E+00  0.00000000E+00  0.00000000E+00
  0.00000000E+00  0.00000000E+00  0.00000000E+00
  0.00000000E+00  0.00000000E+00  0.00000000E+00
  0.00000000E+00  0.00000000E+00  0.00000000E+00
  0.00000000E+00  0.00000000E+00  0.00000000E+00
  0.00000000E+00  0.00000000E+00  0.00000000E+00
  0.00000000E+00  0.00000000E+00  0.00000000E+00
  0.00000000E+00  0.00000000E+00  0.00000000E+00
  0.00000000E+00  0.00000000E+00  0.00000000E+00
