#12-C12/m1                              
  0.999999999705444     
    11.7813407520389859    0.0000000000000000    0.0036047405897377
     0.0000000000000000    3.9726101223618615    0.0000000000000000
    -0.1449658222611546    0.0000000000000000    8.7838776282806776
   Fe   Ge
    20    12
Direct
  0.6635378858141934  0.0000000000000000  0.8300488590033552
  0.3364621141858066  0.0000000000000000  0.1699511409966448
  0.1635378858141934  0.5000000000000000  0.8300488590033552
  0.8364621141858066  0.5000000000000000  0.1699511409966448
  0.1709904755328040  0.0000000000000000  0.3350992297322506
  0.8290095244671960  0.0000000000000000  0.6649007702677494
  0.6709904755328040  0.5000000000000000  0.3350992297322506
  0.3290095244671960  0.5000000000000000  0.6649007702677494
  0.0000000000000000  0.0000000000000000  0.5000000000000000
  0.5000000000000000  0.5000000000000000  0.5000000000000000
  0.3137306719460966  0.0000000000000000  0.8393034507856854
  0.6862693280539034  0.0000000000000000  0.1606965492143146
  0.8137306719460966  0.5000000000000000  0.8393034507856854
  0.1862693280539034  0.5000000000000000  0.1606965492143146
  0.0254681060328323  0.0000000000000000  0.7932348253155510
  0.9745318939671677  0.0000000000000000  0.2067651746844490
  0.5254681060328323  0.5000000000000000  0.7932348253155510
  0.4745318939671677  0.5000000000000000  0.2067651746844490
  0.0000000000000000  0.5000000000000000  0.0000000000000000
  0.5000000000000000  0.0000000000000000  0.0000000000000000
  0.8585446839722550  0.0000000000000000  0.9792217440750548
  0.1414553160277450  0.0000000000000000  0.0207782559249452
  0.3585446839722550  0.5000000000000000  0.9792217440750548
  0.6414553160277450  0.5000000000000000  0.0207782559249452
  0.1900843222882287  0.0000000000000000  0.6167525068176545
  0.8099156777117713  0.0000000000000000  0.3832474931823455
  0.6900843222882287  0.5000000000000000  0.6167525068176545
  0.3099156777117713  0.5000000000000000  0.3832474931823455
  0.4699527785796320  0.0000000000000000  0.6553564744229519
  0.5300472214203680  0.0000000000000000  0.3446435255770481
  0.9699527785796320  0.5000000000000000  0.6553564744229519
  0.0300472214203680  0.5000000000000000  0.3446435255770481
 
  0.00000000E+00  0.00000000E+00  0.00000000E+00
  0.00000000E+00  0.00000000E+00  0.00000000E+00
  0.00000000E+00  0.00000000E+00  0.00000000E+00
  0.00000000E+00  0.00000000E+00  0.00000000E+00
  0.00000000E+00  0.00000000E+00  0.00000000E+00
  0.00000000E+00  0.00000000E+00  0.00000000E+00
  0.00000000E+00  0.00000000E+00  0.00000000E+00
  0.00000000E+00  0.00000000E+00  0.00000000E+00
  0.00000000E+00  0.00000000E+00  0.00000000E+00
  0.00000000E+00  0.00000000E+00  0.00000000E+00
  0.00000000E+00  0.00000000E+00  0.00000000E+00
  0.00000000E+00  0.00000000E+00  0.00000000E+00
  0.00000000E+00  0.00000000E+00  0.00000000E+00
  0.00000000E+00  0.00000000E+00  0.00000000E+00
  0.00000000E+00  0.00000000E+00  0.00000000E+00
  0.00000000E+00  0.00000000E+00  0.00000000E+00
  0.00000000E+00  0.00000000E+00  0.00000000E+00
  0.00000000E+00  0.00000000E+00  0.00000000E+00
  0.00000000E+00  0.00000000E+00  0.00000000E+00
  0.00000000E+00  0.00000000E+00  0.00000000E+00
  0.00000000E+00  0.00000000E+00  0.00000000E+00
  0.00000000E+00  0.00000000E+00  0.00000000E+00
  0.00000000E+00  0.00000000E+00  0.00000000E+00
  0.00000000E+00  0.00000000E+00  0.00000000E+00
  0.00000000E+00  0.00000000E+00  0.00000000E+00
  0.00000000E+00  0.00000000E+00  0.00000000E+00
  0.00000000E+00  0.00000000E+00  0.00000000E+00
  0.00000000E+00  0.00000000E+00  0.00000000E+00
  0.00000000E+00  0.00000000E+00  0.00000000E+00
  0.00000000E+00  0.00000000E+00  0.00000000E+00
  0.00000000E+00  0.00000000E+00  0.00000000E+00
  0.00000000E+00  0.00000000E+00  0.00000000E+00
