#65-C2/m2/m2/m                          
   1.00000000028017     
     8.1611849835589538    0.0000000000000000    0.0000000000000000
     0.0000000000000000    5.7266335650964235    0.0000000000000000
     0.0000000000000000    0.0000000000000000    4.0167611823307947
   Fe   Ge
    10     6
Direct
  0.0000000000000000  0.2369598687884107  0.5000000000000000
  0.0000000000000000  0.7630401312115893  0.5000000000000000
  0.5000000000000000  0.7369598687884107  0.5000000000000000
  0.5000000000000000  0.2630401312115893  0.5000000000000000
  0.2500000000000000  0.2500000000000000  0.0000000000000000
  0.2500000000000000  0.7500000000000000  0.0000000000000000
  0.7500000000000000  0.2500000000000000  0.0000000000000000
  0.7500000000000000  0.7500000000000000  0.0000000000000000
  0.5000000000000000  0.0000000000000000  0.0000000000000000
  0.0000000000000000  0.5000000000000000  0.0000000000000000
  0.7323722155754950  0.0000000000000000  0.5000000000000000
  0.2676277844245050  0.0000000000000000  0.5000000000000000
  0.2323722155754950  0.5000000000000000  0.5000000000000000
  0.7676277844245050  0.5000000000000000  0.5000000000000000
  0.0000000000000000  0.0000000000000000  0.0000000000000000
  0.5000000000000000  0.5000000000000000  0.0000000000000000
 
  0.00000000E+00  0.00000000E+00  0.00000000E+00
  0.00000000E+00  0.00000000E+00  0.00000000E+00
  0.00000000E+00  0.00000000E+00  0.00000000E+00
  0.00000000E+00  0.00000000E+00  0.00000000E+00
  0.00000000E+00  0.00000000E+00  0.00000000E+00
  0.00000000E+00  0.00000000E+00  0.00000000E+00
  0.00000000E+00  0.00000000E+00  0.00000000E+00
  0.00000000E+00  0.00000000E+00  0.00000000E+00
  0.00000000E+00  0.00000000E+00  0.00000000E+00
  0.00000000E+00  0.00000000E+00  0.00000000E+00
  0.00000000E+00  0.00000000E+00  0.00000000E+00
  0.00000000E+00  0.00000000E+00  0.00000000E+00
  0.00000000E+00  0.00000000E+00  0.00000000E+00
  0.00000000E+00  0.00000000E+00  0.00000000E+00
  0.00000000E+00  0.00000000E+00  0.00000000E+00
  0.00000000E+00  0.00000000E+00  0.00000000E+00
