#12-C12/m1                              
  0.999999999355580     
    12.6720191596979532    0.0000000000000000    0.0085930041358274
     0.0000000000000000    3.6353312926890147    0.0000000000000000
    -2.0244628074346633    0.0000000000000000    4.6391846956188090
   Fe   Ge
    10     6
Direct
  0.1040952397094088  0.0000000000000000  0.8535537943592857
  0.8959047602905912  0.0000000000000000  0.1464462056407143
  0.6040952397094088  0.5000000000000000  0.8535537943592857
  0.3959047602905912  0.5000000000000000  0.1464462056407143
  0.1077979409147858  0.0000000000000000  0.3598752968085606
  0.8922020590852142  0.0000000000000000  0.6401247031914394
  0.6077979409147858  0.5000000000000000  0.3598752968085606
  0.3922020590852142  0.5000000000000000  0.6401247031914394
  0.0000000000000000  0.5000000000000000  0.5000000000000000
  0.5000000000000000  0.0000000000000000  0.5000000000000000
  0.7140817586700550  0.0000000000000000  0.7202625128296702
  0.2859182413299450  0.0000000000000000  0.2797374871703298
  0.2140817586700550  0.5000000000000000  0.7202625128296702
  0.7859182413299450  0.5000000000000000  0.2797374871703298
  0.0000000000000000  0.5000000000000000  0.0000000000000000
  0.5000000000000000  0.0000000000000000  0.0000000000000000
 
  0.00000000E+00  0.00000000E+00  0.00000000E+00
  0.00000000E+00  0.00000000E+00  0.00000000E+00
  0.00000000E+00  0.00000000E+00  0.00000000E+00
  0.00000000E+00  0.00000000E+00  0.00000000E+00
  0.00000000E+00  0.00000000E+00  0.00000000E+00
  0.00000000E+00  0.00000000E+00  0.00000000E+00
  0.00000000E+00  0.00000000E+00  0.00000000E+00
  0.00000000E+00  0.00000000E+00  0.00000000E+00
  0.00000000E+00  0.00000000E+00  0.00000000E+00
  0.00000000E+00  0.00000000E+00  0.00000000E+00
  0.00000000E+00  0.00000000E+00  0.00000000E+00
  0.00000000E+00  0.00000000E+00  0.00000000E+00
  0.00000000E+00  0.00000000E+00  0.00000000E+00
  0.00000000E+00  0.00000000E+00  0.00000000E+00
  0.00000000E+00  0.00000000E+00  0.00000000E+00
  0.00000000E+00  0.00000000E+00  0.00000000E+00
