#12 (C 2/m) [unique axis c] cell choice 
   12.0068200037682     
     0.0318721546565099    0.0000000000000000   -0.5006830697157073
    -0.4991250290178180    0.2120078729517619   -0.0005179427634679
     0.4991250290178180    0.2120078729517619    0.0005179427634679
   Co   Ta
    14     2
Direct
  0.9593062607192956  0.1413372242597353  0.8586627757402647
  0.0406937392807044  0.8586627757402647  0.1413372242597353
  0.7799655600594149  0.7389276014467387  0.7837694224187485
  0.2200344399405852  0.7837694224187485  0.7389276014467387
  0.2200344399405852  0.2610723985532613  0.2162305775812515
  0.7799655600594149  0.2162305775812515  0.2610723985532613
  0.3027720026934823  0.9817077714162989  0.5228212519534694
  0.6972279973065176  0.5228212519534694  0.9817077714162989
  0.6972279973065176  0.0182922285837011  0.4771787480465304
  0.3027720026934823  0.4771787480465304  0.0182922285837011
  0.4719278292610412  0.3987643350154281  0.6012356649845718
  0.5280721707389586  0.6012356649845718  0.3987643350154281
  0.5522745639063772  0.1073815423835952  0.8926184576164048
  0.4477254360936225  0.8926184576164048  0.1073815423835952
  0.0376742805860686  0.3550930651243944  0.6449069348756056
  0.9623257194139314  0.6449069348756056  0.3550930651243944
 
  0.00000000E+00  0.00000000E+00  0.00000000E+00
  0.00000000E+00  0.00000000E+00  0.00000000E+00
  0.00000000E+00  0.00000000E+00  0.00000000E+00
  0.00000000E+00  0.00000000E+00  0.00000000E+00
  0.00000000E+00  0.00000000E+00  0.00000000E+00
  0.00000000E+00  0.00000000E+00  0.00000000E+00
  0.00000000E+00  0.00000000E+00  0.00000000E+00
  0.00000000E+00  0.00000000E+00  0.00000000E+00
  0.00000000E+00  0.00000000E+00  0.00000000E+00
  0.00000000E+00  0.00000000E+00  0.00000000E+00
  0.00000000E+00  0.00000000E+00  0.00000000E+00
  0.00000000E+00  0.00000000E+00  0.00000000E+00
  0.00000000E+00  0.00000000E+00  0.00000000E+00
  0.00000000E+00  0.00000000E+00  0.00000000E+00
  0.00000000E+00  0.00000000E+00  0.00000000E+00
  0.00000000E+00  0.00000000E+00  0.00000000E+00
