#156 (P 3 m 1)                          
   5.09328999967539     
     0.9977230195842112   -0.0000095051153847   -0.0000022161481968
    -0.4988697414596743    0.8640483273283265    0.0000022161471689
    -0.0000107268510369    0.0000061931474626    4.8477768574437343
   Co   Ta
    42     6
Direct
  0.4953605526536689  0.5046394473463105  0.0067630322678458
  0.4953754072118821  0.9907394037456924  0.0067633238135605
  0.0092605962543285  0.5046245927881178  0.0067633238135605
  0.8286901915181751  0.1713098084818796  0.6733734056131322
  0.8287040011027238  0.6574151427062092  0.6733775210301941
  0.3425848572937437  0.1712959988972757  0.6733775210301942
  0.1620146720369364  0.8379853279630498  0.3401160063791157
  0.1620300085744067  0.3240490427984652  0.3401159362722177
  0.6759509572015487  0.8379699914255933  0.3401159362722177
  0.8376334786736956  0.1623665213261554  0.8344595140227725
  0.8376115747956359  0.6752509512157260  0.8344585886736026
  0.3247490487844159  0.1623884252043643  0.8344585886736026
  0.1709675041017725  0.8290324958981569  0.5011483602512987
  0.1709464037843474  0.3419312409645876  0.5011517545588492
  0.6580687590354689  0.8290535962156530  0.5011517545588492
  0.5043110070015776  0.4956889929983645  0.1679193146924167
  0.5042924108834643  0.0086020665564187  0.1679191848085834
  0.9913979334436394  0.4957075891165358  0.1679191848085834
  0.1712565987501479  0.8287434012498026  0.9170845386523233
  0.1712400954245724  0.3425002178950621  0.9170840222966046
  0.6574997821049733  0.8287599045754277  0.9170840222966046
  0.5045911480253573  0.4954088519746219  0.5837597090662031
  0.5045720082346488  0.0091711126266616  0.5837591832222838
  0.9908288873733587  0.4954279917653511  0.5837591832222838
  0.8379438720585441  0.1620561279414137  0.2504791392998296
  0.8379280189317911  0.6758701303357356  0.2504794298157211
  0.3241298696642995  0.1620719810682090  0.2504794298157211
  0.3333330067391061  0.6666669932608937  0.4183064588028987
  0.6666672238081770  0.3333327761918157  0.0850000850953453
  0.9999947347259502  0.0000052652740495  0.7515842057741732
  0.5009122836661875  0.4990877163337891  0.7561098958785968
  0.5009641810244986  0.0019578686905310  0.7561086186089567
  0.9980421313094859  0.4990358189755009  0.7561086186089567
  0.8342514120453962  0.1657485879545401  0.4228291064220885
  0.8342392899590270  0.6684922981501095  0.4228297877497922
  0.3315077018499543  0.1657607100409731  0.4228297877497922
  0.1676115415838860  0.8323884584160361  0.0895139252816767
  0.1676010262327802  0.3352074124096769  0.0895151166379173
  0.6647925875903939  0.8323989737672199  0.0895151166379173
  0.3333265360732184  0.6666734639267813  0.8356767072639406
  0.6666623215419201  0.3333376784580798  0.5023858136726053
  0.0000008607581260  0.9999991392418741  0.1690701708072385
  0.3333302599202368  0.6666697400797631  0.2575345021638501
  0.6666616305444849  0.3333383694555149  0.9241406864210724
  0.9999940423099191  0.0000059576900809  0.5907749483856906
  0.3333324287707066  0.6666675712293005  0.6665232271923515
  0.6666714295283490  0.3333285704716439  0.3332440781430872
  0.0000037250990348  0.9999962749009654  0.9998782334738167
 
  0.00000000E+00  0.00000000E+00  0.00000000E+00
  0.00000000E+00  0.00000000E+00  0.00000000E+00
  0.00000000E+00  0.00000000E+00  0.00000000E+00
  0.00000000E+00  0.00000000E+00  0.00000000E+00
  0.00000000E+00  0.00000000E+00  0.00000000E+00
  0.00000000E+00  0.00000000E+00  0.00000000E+00
  0.00000000E+00  0.00000000E+00  0.00000000E+00
  0.00000000E+00  0.00000000E+00  0.00000000E+00
  0.00000000E+00  0.00000000E+00  0.00000000E+00
  0.00000000E+00  0.00000000E+00  0.00000000E+00
  0.00000000E+00  0.00000000E+00  0.00000000E+00
  0.00000000E+00  0.00000000E+00  0.00000000E+00
  0.00000000E+00  0.00000000E+00  0.00000000E+00
  0.00000000E+00  0.00000000E+00  0.00000000E+00
  0.00000000E+00  0.00000000E+00  0.00000000E+00
  0.00000000E+00  0.00000000E+00  0.00000000E+00
  0.00000000E+00  0.00000000E+00  0.00000000E+00
  0.00000000E+00  0.00000000E+00  0.00000000E+00
  0.00000000E+00  0.00000000E+00  0.00000000E+00
  0.00000000E+00  0.00000000E+00  0.00000000E+00
  0.00000000E+00  0.00000000E+00  0.00000000E+00
  0.00000000E+00  0.00000000E+00  0.00000000E+00
  0.00000000E+00  0.00000000E+00  0.00000000E+00
  0.00000000E+00  0.00000000E+00  0.00000000E+00
  0.00000000E+00  0.00000000E+00  0.00000000E+00
  0.00000000E+00  0.00000000E+00  0.00000000E+00
  0.00000000E+00  0.00000000E+00  0.00000000E+00
  0.00000000E+00  0.00000000E+00  0.00000000E+00
  0.00000000E+00  0.00000000E+00  0.00000000E+00
  0.00000000E+00  0.00000000E+00  0.00000000E+00
  0.00000000E+00  0.00000000E+00  0.00000000E+00
  0.00000000E+00  0.00000000E+00  0.00000000E+00
  0.00000000E+00  0.00000000E+00  0.00000000E+00
  0.00000000E+00  0.00000000E+00  0.00000000E+00
  0.00000000E+00  0.00000000E+00  0.00000000E+00
  0.00000000E+00  0.00000000E+00  0.00000000E+00
  0.00000000E+00  0.00000000E+00  0.00000000E+00
  0.00000000E+00  0.00000000E+00  0.00000000E+00
  0.00000000E+00  0.00000000E+00  0.00000000E+00
  0.00000000E+00  0.00000000E+00  0.00000000E+00
  0.00000000E+00  0.00000000E+00  0.00000000E+00
  0.00000000E+00  0.00000000E+00  0.00000000E+00
  0.00000000E+00  0.00000000E+00  0.00000000E+00
  0.00000000E+00  0.00000000E+00  0.00000000E+00
  0.00000000E+00  0.00000000E+00  0.00000000E+00
  0.00000000E+00  0.00000000E+00  0.00000000E+00
  0.00000000E+00  0.00000000E+00  0.00000000E+00
  0.00000000E+00  0.00000000E+00  0.00000000E+00
