#164-P-32/m1                            
   1.00000000006571     
     5.0811713215616248   -0.0000000000000000   -0.0000000000000000
    -2.5405856607808124    4.4004234454533169    0.0000000000000000
     0.0000000000000000    0.0000000000000000    8.2408110728638064
   Co   Ta
    14     2
Direct
  0.8333607511080537  0.1666392488919462  0.3836423989110389
  0.8333607511080537  0.6667215022161075  0.3836423989110389
  0.3332784977838925  0.1666392488919462  0.3836423989110389
  0.6667215022161075  0.8333607511080537  0.6163576010889612
  0.1666392488919462  0.8333607511080537  0.6163576010889612
  0.1666392488919462  0.3332784977838925  0.6163576010889612
  0.3333299999999966  0.6666700000000034  0.3707339734661330
  0.6666600000000003  0.3333299999999966  0.6292660265338671
  0.1615685996783089  0.8384314003216911  0.1346872733698764
  0.1615685996783089  0.3231371993566178  0.1346872733698764
  0.6768628006433822  0.8384314003216911  0.1346872733698764
  0.3231371993566178  0.1615685996783089  0.8653127266301236
  0.8384314003216911  0.1615685996783089  0.8653127266301236
  0.8384314003216911  0.6768628006433822  0.8653127266301236
  0.3333299999999966  0.6666700000000034  0.8883522306736721
  0.6666600000000003  0.3333299999999966  0.1116477693263279
 
  0.00000000E+00  0.00000000E+00  0.00000000E+00
  0.00000000E+00  0.00000000E+00  0.00000000E+00
  0.00000000E+00  0.00000000E+00  0.00000000E+00
  0.00000000E+00  0.00000000E+00  0.00000000E+00
  0.00000000E+00  0.00000000E+00  0.00000000E+00
  0.00000000E+00  0.00000000E+00  0.00000000E+00
  0.00000000E+00  0.00000000E+00  0.00000000E+00
  0.00000000E+00  0.00000000E+00  0.00000000E+00
  0.00000000E+00  0.00000000E+00  0.00000000E+00
  0.00000000E+00  0.00000000E+00  0.00000000E+00
  0.00000000E+00  0.00000000E+00  0.00000000E+00
  0.00000000E+00  0.00000000E+00  0.00000000E+00
  0.00000000E+00  0.00000000E+00  0.00000000E+00
  0.00000000E+00  0.00000000E+00  0.00000000E+00
  0.00000000E+00  0.00000000E+00  0.00000000E+00
  0.00000000E+00  0.00000000E+00  0.00000000E+00
