#12 (C 2/m) [unique axis c] cell choice 
   8.82913000672164     
     0.4960857765207852    0.0000000000000000   -0.9322393054510906
    -0.4987427508527884    0.2873583184151293    0.0005130627490040
     0.4987427508527884    0.2873583184151293   -0.0005130627490040
   Co   Ta
    14     2
Direct
  0.8829298347142176  0.8558354722690948  0.6384997455232516
  0.1170701652857823  0.6384997455232516  0.8558354722690948
  0.1170701652857823  0.1441645277309051  0.3615002544767483
  0.8829298347142176  0.3615002544767483  0.1441645277309051
  0.3657982825772822  0.5958822826634207  0.8915858639417622
  0.6342017174227178  0.8915858639417622  0.5958822826634207
  0.6342017174227178  0.4041177173365793  0.1084141360582376
  0.3657982825772822  0.1084141360582376  0.4041177173365793
  0.1299697549249099  0.6480005430677355  0.3519994569322645
  0.8700302450750900  0.3519994569322645  0.6480005430677355
  0.1162517291749402  0.1427911897115438  0.8572088102884562
  0.8837482708250597  0.8572088102884562  0.1427911897115438
  0.6341773218733184  0.4052159052774198  0.5947840947225804
  0.3658226781266817  0.5947840947225804  0.4052159052774198
  0.3857963591064268  0.1101225618249656  0.8898774381750345
  0.6142036408935734  0.8898774381750345  0.1101225618249656
 
  0.00000000E+00  0.00000000E+00  0.00000000E+00
  0.00000000E+00  0.00000000E+00  0.00000000E+00
  0.00000000E+00  0.00000000E+00  0.00000000E+00
  0.00000000E+00  0.00000000E+00  0.00000000E+00
  0.00000000E+00  0.00000000E+00  0.00000000E+00
  0.00000000E+00  0.00000000E+00  0.00000000E+00
  0.00000000E+00  0.00000000E+00  0.00000000E+00
  0.00000000E+00  0.00000000E+00  0.00000000E+00
  0.00000000E+00  0.00000000E+00  0.00000000E+00
  0.00000000E+00  0.00000000E+00  0.00000000E+00
  0.00000000E+00  0.00000000E+00  0.00000000E+00
  0.00000000E+00  0.00000000E+00  0.00000000E+00
  0.00000000E+00  0.00000000E+00  0.00000000E+00
  0.00000000E+00  0.00000000E+00  0.00000000E+00
  0.00000000E+00  0.00000000E+00  0.00000000E+00
  0.00000000E+00  0.00000000E+00  0.00000000E+00
