#141-I41/a2/m2/d(originchoice2)         
   1.00000000021333     
     7.1578398162708083    0.0000000000000000    0.0000000000000000
    -0.0000000000000000    7.1578398162708083    0.0000000000000000
    -0.0000000000000000    0.0000000000000000   14.4072239689391850
   Co   Ta
    56     8
Direct
  0.0000000000000000  0.5074130596329066  0.6231675156142210
  0.0000000000000000  0.4925869403670934  0.3768324843857790
  0.0000000000000000  0.0074130596329066  0.3768324843857790
  0.0000000000000000  0.9925869403670934  0.6231675156142210
  0.7425869403670934  0.2500000000000000  0.1268324843857790
  0.7425869403670934  0.7500000000000000  0.8731675156142210
  0.2574130596329066  0.7500000000000000  0.8731675156142210
  0.2574130596329066  0.2500000000000000  0.1268324843857790
  0.5000000000000000  0.0074130596329066  0.1231675156142210
  0.5000000000000000  0.9925869403670934  0.8768324843857790
  0.5000000000000000  0.5074130596329066  0.8768324843857790
  0.5000000000000000  0.4925869403670934  0.1231675156142210
  0.2425869403670934  0.7500000000000000  0.6268324843857790
  0.2425869403670934  0.2500000000000000  0.3731675156142210
  0.7574130596329066  0.2500000000000000  0.3731675156142210
  0.7574130596329066  0.7500000000000000  0.6268324843857790
  0.0000000000000000  0.0120158542939452  0.1268142858527178
  0.0000000000000000  0.9879841457060548  0.8731857141472822
  0.0000000000000000  0.5120158542939452  0.8731857141472822
  0.0000000000000000  0.4879841457060548  0.1268142858527178
  0.2379841457060548  0.2500000000000000  0.6231857141472822
  0.2379841457060548  0.7500000000000000  0.3768142858527179
  0.7620158542939452  0.7500000000000000  0.3768142858527179
  0.7620158542939452  0.2500000000000000  0.6231857141472822
  0.5000000000000000  0.5120158542939452  0.6268142858527178
  0.5000000000000000  0.4879841457060548  0.3731857141472821
  0.5000000000000000  0.0120158542939452  0.3731857141472821
  0.5000000000000000  0.9879841457060548  0.6268142858527178
  0.7379841457060548  0.7500000000000000  0.1231857141472821
  0.7379841457060548  0.2500000000000000  0.8768142858527178
  0.2620158542939452  0.2500000000000000  0.8768142858527178
  0.2620158542939452  0.7500000000000000  0.1231857141472821
  0.7356271544626265 -0.0000000000000000  0.0000000000000000
  0.2643728455373735  0.5000000000000000  0.0000000000000000
  0.2500000000000000  0.5143728455373735  0.7500000000000000
  0.2500000000000000  0.4856271544626265  0.2500000000000000
  0.7500000000000000  0.0143728455373735  0.2500000000000000
  0.7500000000000000  0.9856271544626265  0.7500000000000000
  0.2643728455373735 -0.0000000000000000  0.0000000000000000
  0.7356271544626265  0.5000000000000000  0.0000000000000000
  0.7500000000000000  0.4856271544626265  0.2500000000000000
  0.7500000000000000  0.5143728455373735  0.7500000000000000
  0.2500000000000000  0.9856271544626265  0.7500000000000000
  0.2500000000000000  0.0143728455373735  0.2500000000000000
  0.2356271544626265  0.5000000000000000  0.5000000000000000
  0.7643728455373735 -0.0000000000000000  0.5000000000000000
  0.7643728455373735  0.5000000000000000  0.5000000000000000
  0.2356271544626265 -0.0000000000000000  0.5000000000000000
  0.0000000000000000  0.2500000000000000  0.4998979869410611
  0.0000000000000000  0.7500000000000000  0.5001020130589389
  0.0000000000000000  0.2500000000000000  0.2501020130589389
  0.0000000000000000  0.7500000000000000  0.7498979869410611
  0.5000000000000000  0.7500000000000000  0.9998979869410611
  0.5000000000000000  0.2500000000000000  0.0001020130589389
  0.5000000000000000  0.7500000000000000  0.7501020130589389
  0.5000000000000000  0.2500000000000000  0.2498979869410611
  0.0000000000000000  0.2500000000000000  0.7551806422035493
  0.0000000000000000  0.7500000000000000  0.2448193577964507
  0.0000000000000000  0.2500000000000000  0.9948193577964507
  0.0000000000000000  0.7500000000000000  0.0051806422035493
  0.5000000000000000  0.7500000000000000  0.2551806422035493
  0.5000000000000000  0.2500000000000000  0.7448193577964507
  0.5000000000000000  0.7500000000000000  0.4948193577964507
  0.5000000000000000  0.2500000000000000  0.5051806422035493
 
  0.00000000E+00  0.00000000E+00  0.00000000E+00
  0.00000000E+00  0.00000000E+00  0.00000000E+00
  0.00000000E+00  0.00000000E+00  0.00000000E+00
  0.00000000E+00  0.00000000E+00  0.00000000E+00
  0.00000000E+00  0.00000000E+00  0.00000000E+00
  0.00000000E+00  0.00000000E+00  0.00000000E+00
  0.00000000E+00  0.00000000E+00  0.00000000E+00
  0.00000000E+00  0.00000000E+00  0.00000000E+00
  0.00000000E+00  0.00000000E+00  0.00000000E+00
  0.00000000E+00  0.00000000E+00  0.00000000E+00
  0.00000000E+00  0.00000000E+00  0.00000000E+00
  0.00000000E+00  0.00000000E+00  0.00000000E+00
  0.00000000E+00  0.00000000E+00  0.00000000E+00
  0.00000000E+00  0.00000000E+00  0.00000000E+00
  0.00000000E+00  0.00000000E+00  0.00000000E+00
  0.00000000E+00  0.00000000E+00  0.00000000E+00
  0.00000000E+00  0.00000000E+00  0.00000000E+00
  0.00000000E+00  0.00000000E+00  0.00000000E+00
  0.00000000E+00  0.00000000E+00  0.00000000E+00
  0.00000000E+00  0.00000000E+00  0.00000000E+00
  0.00000000E+00  0.00000000E+00  0.00000000E+00
  0.00000000E+00  0.00000000E+00  0.00000000E+00
  0.00000000E+00  0.00000000E+00  0.00000000E+00
  0.00000000E+00  0.00000000E+00  0.00000000E+00
  0.00000000E+00  0.00000000E+00  0.00000000E+00
  0.00000000E+00  0.00000000E+00  0.00000000E+00
  0.00000000E+00  0.00000000E+00  0.00000000E+00
  0.00000000E+00  0.00000000E+00  0.00000000E+00
  0.00000000E+00  0.00000000E+00  0.00000000E+00
  0.00000000E+00  0.00000000E+00  0.00000000E+00
  0.00000000E+00  0.00000000E+00  0.00000000E+00
  0.00000000E+00  0.00000000E+00  0.00000000E+00
  0.00000000E+00  0.00000000E+00  0.00000000E+00
  0.00000000E+00  0.00000000E+00  0.00000000E+00
  0.00000000E+00  0.00000000E+00  0.00000000E+00
  0.00000000E+00  0.00000000E+00  0.00000000E+00
  0.00000000E+00  0.00000000E+00  0.00000000E+00
  0.00000000E+00  0.00000000E+00  0.00000000E+00
  0.00000000E+00  0.00000000E+00  0.00000000E+00
  0.00000000E+00  0.00000000E+00  0.00000000E+00
  0.00000000E+00  0.00000000E+00  0.00000000E+00
  0.00000000E+00  0.00000000E+00  0.00000000E+00
  0.00000000E+00  0.00000000E+00  0.00000000E+00
  0.00000000E+00  0.00000000E+00  0.00000000E+00
  0.00000000E+00  0.00000000E+00  0.00000000E+00
  0.00000000E+00  0.00000000E+00  0.00000000E+00
  0.00000000E+00  0.00000000E+00  0.00000000E+00
  0.00000000E+00  0.00000000E+00  0.00000000E+00
  0.00000000E+00  0.00000000E+00  0.00000000E+00
  0.00000000E+00  0.00000000E+00  0.00000000E+00
  0.00000000E+00  0.00000000E+00  0.00000000E+00
  0.00000000E+00  0.00000000E+00  0.00000000E+00
  0.00000000E+00  0.00000000E+00  0.00000000E+00
  0.00000000E+00  0.00000000E+00  0.00000000E+00
  0.00000000E+00  0.00000000E+00  0.00000000E+00
  0.00000000E+00  0.00000000E+00  0.00000000E+00
  0.00000000E+00  0.00000000E+00  0.00000000E+00
  0.00000000E+00  0.00000000E+00  0.00000000E+00
  0.00000000E+00  0.00000000E+00  0.00000000E+00
  0.00000000E+00  0.00000000E+00  0.00000000E+00
  0.00000000E+00  0.00000000E+00  0.00000000E+00
  0.00000000E+00  0.00000000E+00  0.00000000E+00
  0.00000000E+00  0.00000000E+00  0.00000000E+00
  0.00000000E+00  0.00000000E+00  0.00000000E+00
