#139-I4/m2/m2/m                         
   1.00000000021628     
     3.5959245937328310   -0.0000000000000000   -0.0000000000000000
     0.0000000000000000    3.5959245937328310   -0.0000000000000000
     0.0000000000000000   -0.0000000000000000   14.1943504814733412
   Co   Ta
    14     2
Direct
  0.0000000000000000  0.5000000000000000  0.6322614692006355
 -0.0000000000000000  0.5000000000000000  0.3677385307993645
  0.5000000000000000 -0.0000000000000000  0.3677385307993645
  0.5000000000000000  0.0000000000000000  0.6322614692006355
  0.5000000000000000  0.0000000000000000  0.1322614692006356
  0.5000000000000000 -0.0000000000000000  0.8677385307993645
 -0.0000000000000000  0.5000000000000000  0.8677385307993645
  0.0000000000000000  0.5000000000000000  0.1322614692006356
 -0.0000000000000000  0.0000000000000000  0.0000000000000000
  0.5000000000000000  0.5000000000000000  0.5000000000000000
 -0.0000000000000000  0.0000000000000000  0.2498635577026369
  0.0000000000000000 -0.0000000000000000  0.7501364422973631
  0.5000000000000000  0.5000000000000000  0.7498635577026369
  0.5000000000000000  0.5000000000000000  0.2501364422973631
  0.0000000000000000  0.0000000000000000  0.5000000000000000
  0.5000000000000000  0.5000000000000000  0.0000000000000000
 
  0.00000000E+00  0.00000000E+00  0.00000000E+00
  0.00000000E+00  0.00000000E+00  0.00000000E+00
  0.00000000E+00  0.00000000E+00  0.00000000E+00
  0.00000000E+00  0.00000000E+00  0.00000000E+00
  0.00000000E+00  0.00000000E+00  0.00000000E+00
  0.00000000E+00  0.00000000E+00  0.00000000E+00
  0.00000000E+00  0.00000000E+00  0.00000000E+00
  0.00000000E+00  0.00000000E+00  0.00000000E+00
  0.00000000E+00  0.00000000E+00  0.00000000E+00
  0.00000000E+00  0.00000000E+00  0.00000000E+00
  0.00000000E+00  0.00000000E+00  0.00000000E+00
  0.00000000E+00  0.00000000E+00  0.00000000E+00
  0.00000000E+00  0.00000000E+00  0.00000000E+00
  0.00000000E+00  0.00000000E+00  0.00000000E+00
  0.00000000E+00  0.00000000E+00  0.00000000E+00
  0.00000000E+00  0.00000000E+00  0.00000000E+00
