#123 (P 4/m m m)                        
   5.12400999770519     
     0.9983486220816301    0.0000000000000000    0.0000000000000000
     0.0000000000000000    0.9983486220816301    0.0000000000000000
     0.0000000000000000    0.0000000000000000    0.6882311419192850
   Co   Ta
     7     1
Direct
  0.0000000000000000  0.5000000000000000  0.0000000000000000
  0.5000000000000000  0.0000000000000000  0.0000000000000000
  0.2621724630512432  0.2621724630512432  0.5000000000000000
  0.2621724630512432  0.7378275369487568  0.5000000000000000
  0.7378275369487568  0.2621724630512432  0.5000000000000000
  0.7378275369487568  0.7378275369487568  0.5000000000000000
  0.5000000000000000  0.5000000000000000  0.0000000000000000
  0.0000000000000000  0.0000000000000000  0.0000000000000000
 
  0.00000000E+00  0.00000000E+00  0.00000000E+00
  0.00000000E+00  0.00000000E+00  0.00000000E+00
  0.00000000E+00  0.00000000E+00  0.00000000E+00
  0.00000000E+00  0.00000000E+00  0.00000000E+00
  0.00000000E+00  0.00000000E+00  0.00000000E+00
  0.00000000E+00  0.00000000E+00  0.00000000E+00
  0.00000000E+00  0.00000000E+00  0.00000000E+00
  0.00000000E+00  0.00000000E+00  0.00000000E+00
