#123 (P 4/m m m)                        
   3.59335999785180     
     0.9981065676290143    0.0000000000000000    0.0000000000000000
     0.0000000000000000    0.9981065676290143   -0.0000000000000000
     0.0000000000000000   -0.0000000000000000    1.9969399732383526
   Co   Ta
     7     1
Direct
  0.5000000000000000  0.5000000000000000 -0.0000000000000000
  0.5000000000000000  0.5000000000000000  0.5000000000000000
  0.0000000000000000  0.0000000000000000  0.5000000000000000
 -0.0000000000000000  0.5000000000000000  0.2646686859980234
  0.0000000000000000  0.5000000000000000  0.7353313140019765
  0.5000000000000000 -0.0000000000000000  0.7353313140019765
  0.5000000000000000  0.0000000000000000  0.2646686859980234
  0.0000000000000000 -0.0000000000000000  0.0000000000000000
 
  0.00000000E+00  0.00000000E+00  0.00000000E+00
  0.00000000E+00  0.00000000E+00  0.00000000E+00
  0.00000000E+00  0.00000000E+00  0.00000000E+00
  0.00000000E+00  0.00000000E+00  0.00000000E+00
  0.00000000E+00  0.00000000E+00  0.00000000E+00
  0.00000000E+00  0.00000000E+00  0.00000000E+00
  0.00000000E+00  0.00000000E+00  0.00000000E+00
  0.00000000E+00  0.00000000E+00  0.00000000E+00
