#51 (P m m a)                           
   5.08722999638170     
    -0.9987658489809113    0.0000000000000000    0.0000000000000000
     0.0000000000000000   -0.7027458865405235    0.0000000000000000
    -0.0000000000000000    0.0000000000000000    1.9966112546402626
   Co   Ta
    14     2
Direct
  0.5112920237314681  0.5000000000000000  0.7407496236807970
  0.0112920237314681  0.5000000000000000  0.2592503763192029
  0.4887079762685319  0.5000000000000000  0.2592503763192029
  0.9887079762685319  0.5000000000000000  0.7407496236807970
  0.0000000000000000  0.5000000000000000 -0.0000000000000000
  0.5000000000000000  0.5000000000000000 -0.0000000000000000
  0.0000000000000000  0.5000000000000000  0.5000000000000000
  0.5000000000000000  0.5000000000000000  0.5000000000000000
  0.7500000000000000  0.0000000000000000  0.6241246938753292
  0.2500000000000000 -0.0000000000000000  0.3758753061246707
  0.7500000000000000  0.0000000000000000  0.3832637623656990
  0.2500000000000000  0.0000000000000000  0.6167362376343010
  0.7500000000000000  0.0000000000000000  0.8663974773978557
  0.2500000000000000  0.0000000000000000  0.1336025226021443
  0.7500000000000000  0.0000000000000000  0.1242493680307420
  0.2500000000000000  0.0000000000000000  0.8757506319692581
 
  0.00000000E+00  0.00000000E+00  0.00000000E+00
  0.00000000E+00  0.00000000E+00  0.00000000E+00
  0.00000000E+00  0.00000000E+00  0.00000000E+00
  0.00000000E+00  0.00000000E+00  0.00000000E+00
  0.00000000E+00  0.00000000E+00  0.00000000E+00
  0.00000000E+00  0.00000000E+00  0.00000000E+00
  0.00000000E+00  0.00000000E+00  0.00000000E+00
  0.00000000E+00  0.00000000E+00  0.00000000E+00
  0.00000000E+00  0.00000000E+00  0.00000000E+00
  0.00000000E+00  0.00000000E+00  0.00000000E+00
  0.00000000E+00  0.00000000E+00  0.00000000E+00
  0.00000000E+00  0.00000000E+00  0.00000000E+00
  0.00000000E+00  0.00000000E+00  0.00000000E+00
  0.00000000E+00  0.00000000E+00  0.00000000E+00
  0.00000000E+00  0.00000000E+00  0.00000000E+00
  0.00000000E+00  0.00000000E+00  0.00000000E+00
