#8 (C m) [unique axis c] cell choice 1  
   8.82266999475247     
     0.4986862271240046    0.0000000000000000   -0.9348119031132415
    -0.4990452189823502    0.2876655087096712    0.0000928675946151
     0.4990452189823502    0.2876655087096712   -0.0000928675946151
   Co   Ta
    14     2
Direct
  0.2501431663728391  0.2961316780480308  0.2184697146154769
  0.2501431663728391  0.7815302853845231  0.7038683219519623
  0.2507616397610953  0.2958328139681785  0.7041671860318216
  0.9824551817376470  0.4861258882150926  0.5138741117849075
  0.9825444725923981  0.0001726947589272  0.5135553185102237
  0.9825444725923981  0.4864446814897763  0.9998273052410727
  0.7473388082590445  0.5394651528640878  0.4605348471359122
  0.7302614819227679  0.0340489547404179  0.9659510452595821
  0.7329132612020544  0.5242923816976720  0.9643727749446702
  0.7329132612020544  0.0356272250553297  0.4757076183023279
  0.4934004866811447  0.5791657008290657  0.4208342991709343
  0.4945334384685664  0.0821084490529317  0.9178915509470683
  0.4969208453307427  0.0839508636809416  0.4244235998464389
  0.4969208453307427  0.5755764001535612  0.9160491363190584
  0.2292738222519807  0.7803487249736746  0.2196512750263253
  0.0000816499216919  0.0001181050877947 -0.0001181050877947
 
  0.00000000E+00  0.00000000E+00  0.00000000E+00
  0.00000000E+00  0.00000000E+00  0.00000000E+00
  0.00000000E+00  0.00000000E+00  0.00000000E+00
  0.00000000E+00  0.00000000E+00  0.00000000E+00
  0.00000000E+00  0.00000000E+00  0.00000000E+00
  0.00000000E+00  0.00000000E+00  0.00000000E+00
  0.00000000E+00  0.00000000E+00  0.00000000E+00
  0.00000000E+00  0.00000000E+00  0.00000000E+00
  0.00000000E+00  0.00000000E+00  0.00000000E+00
  0.00000000E+00  0.00000000E+00  0.00000000E+00
  0.00000000E+00  0.00000000E+00  0.00000000E+00
  0.00000000E+00  0.00000000E+00  0.00000000E+00
  0.00000000E+00  0.00000000E+00  0.00000000E+00
  0.00000000E+00  0.00000000E+00  0.00000000E+00
  0.00000000E+00  0.00000000E+00  0.00000000E+00
  0.00000000E+00  0.00000000E+00  0.00000000E+00
