#2 (P -1)                               
   6.23016000177271     
     0.9975974508584063    0.0002269111859409    0.0002554188068192
     0.3266077245829275    1.2429467503381995   -0.0003883620306427
     0.3292247456079483    0.1821670523470306    1.2315848317248252
   Co   Ta
    28     4
Direct
  0.2442028487747290  0.8730408807174308  0.8801022393951949
  0.7557902398516766  0.1269660216779377  0.1198939900590302
  0.9999977257622739  0.5000026540904993 -0.0000009428987311
  0.7497062849248027  0.3762881037765544  0.8846541018825237
  0.2502932688511652  0.6237144634824267  0.1153443981885341
  0.8683994408445732  0.8133001985874044  0.0621781247604932
  0.1316150717586387  0.1866853851950301  0.9378356272506807
  0.2585897036947679  0.3780179701792815  0.3684438053141943
  0.7414167736440914  0.6219822957416288  0.6315537807368727
  0.9930936633203097  0.2540873148442789  0.2376748418978151
  0.0069062113022754  0.7459167179729630  0.7623231367890586
  0.4999985312560821  0.5000007530949264  0.4999981432798932
  0.3752607914043133  0.3191924356130016  0.0557484501050665
  0.6247354215640714  0.6808153388967353  0.9442510603437196
  0.5061365412627181  0.7421327076641858  0.2438823588533698
  0.4938588934741944  0.2578734312095590  0.7561160593286824
  0.1162567596891070  0.9397050913836499  0.1766213503152314
  0.8837289063338156  0.0602956787531770  0.8233768477170492
  0.7494500290005406  0.8734927970415363  0.3656677146012099
  0.2505431997025614  0.1265121556853386  0.6343328207045817
  0.6202619162091692  0.4361336551399470  0.1884960370156313
  0.3797383126862146  0.5638698795535833  0.8115026248295423
  0.3743369499655700  0.8053220930007617  0.5696658652467393
  0.6256856788956416  0.1946872469281221  0.4303404487474873
  0.4999977311700637  0.0000011364879475  0.0000006912691385
  0.0000035464470346 -0.0000004444871875  0.4999976234208338
  0.8659361461960392  0.5646405984928058  0.3012407307179977
  0.1340606447672181  0.4353621270592287  0.6987596703519247
  0.1170843876579941  0.6876688351915955  0.4397181985004811
  0.8829182698236695  0.3123377906942131  0.5602809659930509
  0.3689108500410733  0.0602144364062095  0.3173727482322683
  0.6310852597235970  0.9397902499252225  0.6826264870504418
 
  0.00000000E+00  0.00000000E+00  0.00000000E+00
  0.00000000E+00  0.00000000E+00  0.00000000E+00
  0.00000000E+00  0.00000000E+00  0.00000000E+00
  0.00000000E+00  0.00000000E+00  0.00000000E+00
  0.00000000E+00  0.00000000E+00  0.00000000E+00
  0.00000000E+00  0.00000000E+00  0.00000000E+00
  0.00000000E+00  0.00000000E+00  0.00000000E+00
  0.00000000E+00  0.00000000E+00  0.00000000E+00
  0.00000000E+00  0.00000000E+00  0.00000000E+00
  0.00000000E+00  0.00000000E+00  0.00000000E+00
  0.00000000E+00  0.00000000E+00  0.00000000E+00
  0.00000000E+00  0.00000000E+00  0.00000000E+00
  0.00000000E+00  0.00000000E+00  0.00000000E+00
  0.00000000E+00  0.00000000E+00  0.00000000E+00
  0.00000000E+00  0.00000000E+00  0.00000000E+00
  0.00000000E+00  0.00000000E+00  0.00000000E+00
  0.00000000E+00  0.00000000E+00  0.00000000E+00
  0.00000000E+00  0.00000000E+00  0.00000000E+00
  0.00000000E+00  0.00000000E+00  0.00000000E+00
  0.00000000E+00  0.00000000E+00  0.00000000E+00
  0.00000000E+00  0.00000000E+00  0.00000000E+00
  0.00000000E+00  0.00000000E+00  0.00000000E+00
  0.00000000E+00  0.00000000E+00  0.00000000E+00
  0.00000000E+00  0.00000000E+00  0.00000000E+00
  0.00000000E+00  0.00000000E+00  0.00000000E+00
  0.00000000E+00  0.00000000E+00  0.00000000E+00
  0.00000000E+00  0.00000000E+00  0.00000000E+00
  0.00000000E+00  0.00000000E+00  0.00000000E+00
  0.00000000E+00  0.00000000E+00  0.00000000E+00
  0.00000000E+00  0.00000000E+00  0.00000000E+00
  0.00000000E+00  0.00000000E+00  0.00000000E+00
  0.00000000E+00  0.00000000E+00  0.00000000E+00
