#59 (P m m n) [origin choice 2]         
   5.08351000053621     
     0.0000000000000000   -0.8040302328111560    0.0000000000000000
     0.9981692182405620   -0.0000000000000000    0.0000000000000000
     0.0000000000000000    0.0000000000000000    1.7429638071565818
   Co   Ta
    14     2
Direct
  0.7500000000000000  0.2500000000000000  0.5971250595776072
  0.2500000000000000  0.7500000000000000  0.4028749404223927
  0.2500000000000000  0.5015590705043076  0.1571805874530169
  0.7500000000000000  0.0015590705043075  0.8428194125469832
  0.7500000000000000  0.4984409294956925  0.8428194125469832
  0.2500000000000000  0.9984409294956924  0.1571805874530169
  0.2500000000000000  0.4959800452230047  0.6814769510767086
  0.7500000000000000  0.9959800452230047  0.3185230489232913
  0.7500000000000000  0.5040199547769953  0.3185230489232913
  0.2500000000000000  0.0040199547769953  0.6814769510767086
  0.2500000000000000  0.2500000000000000  0.9190612018938609
  0.7500000000000000  0.7500000000000000  0.0809387981061392
  0.7500000000000000  0.2500000000000000  0.0838361175159731
  0.2500000000000000  0.7500000000000000  0.9161638824840269
  0.2500000000000000  0.2500000000000000  0.4232059923168151
  0.7500000000000000  0.7500000000000000  0.5767940076831849
 
  0.00000000E+00  0.00000000E+00  0.00000000E+00
  0.00000000E+00  0.00000000E+00  0.00000000E+00
  0.00000000E+00  0.00000000E+00  0.00000000E+00
  0.00000000E+00  0.00000000E+00  0.00000000E+00
  0.00000000E+00  0.00000000E+00  0.00000000E+00
  0.00000000E+00  0.00000000E+00  0.00000000E+00
  0.00000000E+00  0.00000000E+00  0.00000000E+00
  0.00000000E+00  0.00000000E+00  0.00000000E+00
  0.00000000E+00  0.00000000E+00  0.00000000E+00
  0.00000000E+00  0.00000000E+00  0.00000000E+00
  0.00000000E+00  0.00000000E+00  0.00000000E+00
  0.00000000E+00  0.00000000E+00  0.00000000E+00
  0.00000000E+00  0.00000000E+00  0.00000000E+00
  0.00000000E+00  0.00000000E+00  0.00000000E+00
  0.00000000E+00  0.00000000E+00  0.00000000E+00
  0.00000000E+00  0.00000000E+00  0.00000000E+00
