#166 (R -3 m)                           
   5.08920999614340     
     0.0000136966760484    0.5760954857088344   -1.6196313443815438
     0.4989277968032195   -0.2880560048738755   -1.6196322341427110
    -0.4989066256665222   -0.2880595970383553   -1.6196312217328683
   Co   Ta
    14     2
Direct
  0.8746157871055925  0.3698086802854996  0.8746156846726106
  0.3697962598159831  0.8746270377816665  0.8746158341289488
  0.8746158734967212  0.8746269384714085  0.3697963327541763
  0.1253821838192701  0.6302260996342880  0.1253822174893005
  0.6302076612102536  0.1254051906519327  0.1253796010240769
  0.1253796087258454  0.1254051667728019  0.6302076654238865
  0.2927502180512765  0.7786312614904747  0.2927503309253370
  0.7786184239958645  0.2927620696035385  0.2927479700752582
  0.2927478684069511  0.2927621181371932  0.7786185131087888
  0.7072448379360543  0.2214004188212692  0.7072449410443754
  0.2213827871848060  0.7072668331298182  0.7072431630941277
  0.7072430774125595  0.7072668927250991  0.2213827634503121
  0.6271329716293202  0.6271526569449346  0.6271329839056766
  0.3728701226940487  0.3728755558926659  0.3728701935275598
  0.2041027608191125  0.2041198761078951  0.2041024568067766
  0.7958949976963650  0.7959023235495247  0.7958947885688055
 
  0.00000000E+00  0.00000000E+00  0.00000000E+00
  0.00000000E+00  0.00000000E+00  0.00000000E+00
  0.00000000E+00  0.00000000E+00  0.00000000E+00
  0.00000000E+00  0.00000000E+00  0.00000000E+00
  0.00000000E+00  0.00000000E+00  0.00000000E+00
  0.00000000E+00  0.00000000E+00  0.00000000E+00
  0.00000000E+00  0.00000000E+00  0.00000000E+00
  0.00000000E+00  0.00000000E+00  0.00000000E+00
  0.00000000E+00  0.00000000E+00  0.00000000E+00
  0.00000000E+00  0.00000000E+00  0.00000000E+00
  0.00000000E+00  0.00000000E+00  0.00000000E+00
  0.00000000E+00  0.00000000E+00  0.00000000E+00
  0.00000000E+00  0.00000000E+00  0.00000000E+00
  0.00000000E+00  0.00000000E+00  0.00000000E+00
  0.00000000E+00  0.00000000E+00  0.00000000E+00
  0.00000000E+00  0.00000000E+00  0.00000000E+00
