#10 (P 2/m) [unique axis c]             
   8.76798999929886     
     0.3420194468505795    0.0000000000000000   -0.9379462731859904
    -0.9981603880601299    0.0000000000000000   -0.0013512576031724
     0.0000000000000000    0.5835313787114901    0.0000000000000000
   Co   Ta
    28     4
Direct
  0.8737137741118263  0.3712026332568790  0.2694707161848908
  0.1262615872944229  0.6287919307382258  0.2694647130608803
  0.1262615872944229  0.6287919307382258  0.7305352869391195
  0.8737137741118263  0.3712026332568790  0.7305292838151092
  0.1283730176053478  0.3752880178146111  0.5000000000000000
  0.8716130274835031  0.6247172334157258  0.5000000000000000
  0.3705184336176262  0.2908286798494589  0.5000000000000000
  0.6294599843016548  0.7091709401988995  0.5000000000000000
  0.8760926005410389  0.8779012678922504  0.7434802271110929
  0.1238892371835601  0.1221005104082937  0.7434824970109851
  0.1238892371835601  0.1221005104082937  0.2565175029890149
  0.8760926005410389  0.8779012678922504  0.2565197728889071
  0.6286722684953580  0.7089538476392697  0.0000000000000000
  0.3713119654557316  0.2910466783594727  0.0000000000000000
  0.8792765203566790  0.1272311948063496  0.5000000000000000
  0.1207213770004373  0.8727729670789699  0.5000000000000000
  0.3803691871536762  0.7956245444454580  0.5000000000000000
  0.6195785428253423  0.2043751850119325  0.5000000000000000
  0.3661774587876976  0.0438661358760933  0.7370679229207844
  0.6338030210659314  0.9561349939308788  0.7370547085415740
  0.6338030210659314  0.9561349939308788  0.2629452914584260
  0.3661774587876976  0.0438661358760933  0.2629320770792156
  0.1222861146868994  0.8856313635563495  0.0000000000000000
  0.8776938562946859  0.1143686948215372  0.0000000000000000
  0.3835529896625287  0.5421335894342966  0.7374181801889255
  0.6164312341782289  0.4578665483507698  0.7374175573683688
  0.6164312341782289  0.4578665483507698  0.2625824426316312
  0.3835529896625287  0.5421335894342966  0.2625818198110746
  0.6284102618115268  0.2073096037324971  0.0000000000000000
  0.3715717584150441  0.7926888861454721  0.0000000000000000
  0.1201305419633733  0.3834721686029320  0.0000000000000000
  0.8798493368826281  0.6165247747456893  0.0000000000000000
 
  0.00000000E+00  0.00000000E+00  0.00000000E+00
  0.00000000E+00  0.00000000E+00  0.00000000E+00
  0.00000000E+00  0.00000000E+00  0.00000000E+00
  0.00000000E+00  0.00000000E+00  0.00000000E+00
  0.00000000E+00  0.00000000E+00  0.00000000E+00
  0.00000000E+00  0.00000000E+00  0.00000000E+00
  0.00000000E+00  0.00000000E+00  0.00000000E+00
  0.00000000E+00  0.00000000E+00  0.00000000E+00
  0.00000000E+00  0.00000000E+00  0.00000000E+00
  0.00000000E+00  0.00000000E+00  0.00000000E+00
  0.00000000E+00  0.00000000E+00  0.00000000E+00
  0.00000000E+00  0.00000000E+00  0.00000000E+00
  0.00000000E+00  0.00000000E+00  0.00000000E+00
  0.00000000E+00  0.00000000E+00  0.00000000E+00
  0.00000000E+00  0.00000000E+00  0.00000000E+00
  0.00000000E+00  0.00000000E+00  0.00000000E+00
  0.00000000E+00  0.00000000E+00  0.00000000E+00
  0.00000000E+00  0.00000000E+00  0.00000000E+00
  0.00000000E+00  0.00000000E+00  0.00000000E+00
  0.00000000E+00  0.00000000E+00  0.00000000E+00
  0.00000000E+00  0.00000000E+00  0.00000000E+00
  0.00000000E+00  0.00000000E+00  0.00000000E+00
  0.00000000E+00  0.00000000E+00  0.00000000E+00
  0.00000000E+00  0.00000000E+00  0.00000000E+00
  0.00000000E+00  0.00000000E+00  0.00000000E+00
  0.00000000E+00  0.00000000E+00  0.00000000E+00
  0.00000000E+00  0.00000000E+00  0.00000000E+00
  0.00000000E+00  0.00000000E+00  0.00000000E+00
  0.00000000E+00  0.00000000E+00  0.00000000E+00
  0.00000000E+00  0.00000000E+00  0.00000000E+00
  0.00000000E+00  0.00000000E+00  0.00000000E+00
  0.00000000E+00  0.00000000E+00  0.00000000E+00
