#10 (P 2/m) [unique axis c]             
   16.7164200070936     
    -1.0003290301882699    0.0000000000000000    0.0015978804140592
     0.0310715357208337    0.0000000000000000   -0.3000754061646662
     0.0000000000000000   -0.2442619669966342    0.0000000000000000
   Fe   Ta
    24     4
Direct
  0.9296735110939894  0.8943232272930108  0.5000000000000000
  0.0703452896316712  0.1056799498696986  0.5000000000000000
  0.4296590433465187  0.8943313864600769 -0.0000000000000000
  0.5703413668120662  0.1056791505062190  0.0000000000000000
  0.4979477542543701  0.2427834465942216  0.5000000000000000
  0.5020546086528943  0.7572355435949386  0.5000000000000000
  0.9979616054646431  0.2427780900985541 -0.0000000000000000
  0.0020574402384255  0.7572201330546596  0.0000000000000000
  0.2141127329173526  0.3058904905903603  0.5000000000000000
  0.7858976427608459  0.6941089988860482  0.5000000000000000
  0.7141197566815700  0.3058829403857522 -0.0000000000000000
  0.2858894251004304  0.6941053693347902 -0.0000000000000000
  0.7865754703795031  0.1766283088356743  0.5000000000000000
  0.2134358092861948  0.8233696452824081  0.5000000000000000
  0.2865643142742498  0.1766255373307686 -0.0000000000000000
  0.7134499193195165  0.8233793062120733  0.0000000000000000
  0.0683321484730435  0.6154952489381463  0.5000000000000000
  0.9316812593699227  0.3844993357258442  0.5000000000000000
  0.5683328606227734  0.6154991119852742  0.0000000000000000
  0.4316723561924879  0.3845010456798023  0.0000000000000000
  0.3568112131362999  0.0331376233258405  0.5000000000000000
  0.6431938798909650  0.9668574801589100  0.5000000000000000
  0.8568320861748131  0.0331362774551418  0.0000000000000000
  0.1431901878303282  0.9668595387138972 -0.0000000000000000
  0.6430422200616563  0.4659859743054988  0.5000000000000000
  0.3569635779006157  0.5340103402494417  0.5000000000000000
  0.1430422989295626  0.4659925536072680  0.0000000000000000
  0.8569702212033018  0.5340039455256871  0.0000000000000000
 
  0.00000000E+00  0.00000000E+00  0.00000000E+00
  0.00000000E+00  0.00000000E+00  0.00000000E+00
  0.00000000E+00  0.00000000E+00  0.00000000E+00
  0.00000000E+00  0.00000000E+00  0.00000000E+00
  0.00000000E+00  0.00000000E+00  0.00000000E+00
  0.00000000E+00  0.00000000E+00  0.00000000E+00
  0.00000000E+00  0.00000000E+00  0.00000000E+00
  0.00000000E+00  0.00000000E+00  0.00000000E+00
  0.00000000E+00  0.00000000E+00  0.00000000E+00
  0.00000000E+00  0.00000000E+00  0.00000000E+00
  0.00000000E+00  0.00000000E+00  0.00000000E+00
  0.00000000E+00  0.00000000E+00  0.00000000E+00
  0.00000000E+00  0.00000000E+00  0.00000000E+00
  0.00000000E+00  0.00000000E+00  0.00000000E+00
  0.00000000E+00  0.00000000E+00  0.00000000E+00
  0.00000000E+00  0.00000000E+00  0.00000000E+00
  0.00000000E+00  0.00000000E+00  0.00000000E+00
  0.00000000E+00  0.00000000E+00  0.00000000E+00
  0.00000000E+00  0.00000000E+00  0.00000000E+00
  0.00000000E+00  0.00000000E+00  0.00000000E+00
  0.00000000E+00  0.00000000E+00  0.00000000E+00
  0.00000000E+00  0.00000000E+00  0.00000000E+00
  0.00000000E+00  0.00000000E+00  0.00000000E+00
  0.00000000E+00  0.00000000E+00  0.00000000E+00
  0.00000000E+00  0.00000000E+00  0.00000000E+00
  0.00000000E+00  0.00000000E+00  0.00000000E+00
  0.00000000E+00  0.00000000E+00  0.00000000E+00
  0.00000000E+00  0.00000000E+00  0.00000000E+00
