#11 (P 21/m) [unique axis c]            
   6.32095999705573     
     0.4197987735827537    0.0000000000000000   -1.0508596143019684
    -0.9974323057635215    0.0000000000000000    0.0004786362390464
     0.0000000000000000    0.6480263424395846    0.0000000000000000
   Fe   Ta
    12     2
Direct
  0.4555565302723935  0.6467422910259683  0.2500000000000000
  0.5444434697276066  0.3532577089740317  0.7500000000000000
  0.1748538051069989  0.7773710851959478  0.2500000000000000
  0.8251461948930012  0.2226289148040524  0.7500000000000000
  0.0294133312510077  0.3583381326416691  0.2500000000000000
  0.9705866687489922  0.6416618673583310  0.7500000000000000
  0.7541581889849593  0.5015079802235775  0.2500000000000000
  0.2458418110150407  0.4984920197764225  0.7500000000000000
  0.6156526133936960  0.0738824652073735  0.2500000000000000
  0.3843473866063039  0.9261175347926266  0.7500000000000000
  0.9002248803065015  0.9308581815210492  0.2500000000000000
  0.0997751196934985  0.0691418184789507  0.7500000000000000
  0.3235007054608900  0.2150671388343119  0.2500000000000000
  0.6764992945391101  0.7849328611656882  0.7500000000000000
 
  0.00000000E+00  0.00000000E+00  0.00000000E+00
  0.00000000E+00  0.00000000E+00  0.00000000E+00
  0.00000000E+00  0.00000000E+00  0.00000000E+00
  0.00000000E+00  0.00000000E+00  0.00000000E+00
  0.00000000E+00  0.00000000E+00  0.00000000E+00
  0.00000000E+00  0.00000000E+00  0.00000000E+00
  0.00000000E+00  0.00000000E+00  0.00000000E+00
  0.00000000E+00  0.00000000E+00  0.00000000E+00
  0.00000000E+00  0.00000000E+00  0.00000000E+00
  0.00000000E+00  0.00000000E+00  0.00000000E+00
  0.00000000E+00  0.00000000E+00  0.00000000E+00
  0.00000000E+00  0.00000000E+00  0.00000000E+00
  0.00000000E+00  0.00000000E+00  0.00000000E+00
  0.00000000E+00  0.00000000E+00  0.00000000E+00
