#12 (C 2/m) [unique axis c] cell choice 
   8.76377998795183     
     0.0537195534719534    0.0000000000000000   -0.5478616149275012
    -0.4990876800486739    0.2329534153795820   -0.0004400260045687
     0.4990876800486739    0.2329534153795820    0.0004400260045687
   Fe   Ta
     6     1
Direct
  0.1458589519048816  0.2906022557143352  0.7093977442856648
  0.8541410480951184  0.7093977442856648  0.2906022557143352
  0.5655536751000867  0.1465706552487012  0.8534293447512988
  0.4344463248999133  0.8534293447512988  0.1465706552487012
  0.2985937586965610  0.5757990246084234  0.4242009753915766
  0.7014062413034391  0.4242009753915766  0.5757990246084234
 -0.0000000000000000  0.0000000000000000 -0.0000000000000000
 
  0.00000000E+00  0.00000000E+00  0.00000000E+00
  0.00000000E+00  0.00000000E+00  0.00000000E+00
  0.00000000E+00  0.00000000E+00  0.00000000E+00
  0.00000000E+00  0.00000000E+00  0.00000000E+00
  0.00000000E+00  0.00000000E+00  0.00000000E+00
  0.00000000E+00  0.00000000E+00  0.00000000E+00
  0.00000000E+00  0.00000000E+00  0.00000000E+00
