#2 (P -1)                               
   5.05727999807618     
     0.9955904153081536   -0.0004304601310505    0.0008537326341418
    -0.3242993652748469    1.2335162016000996   -0.0004255418461229
    -0.3197269008211625   -0.6178411001222219    1.0783530257721337
   Fe   Ta
    12     2
Direct
  0.5724967138439362  0.7937847008262245  0.4252101357616378
  0.4275032861560638  0.2062152991737755  0.5747898642383622
  0.3554908700681964  0.9289510320718789  0.1451045442694963
  0.6445091299318034  0.0710489679281212  0.8548954557305037
  0.2959933876970168  0.6504620103044410  0.7239902935572197
  0.7040066123029832  0.3495379896955589  0.2760097064427803
  0.1521762448071256  0.0757775425087735  0.8488077074550640
  0.8478237551928745  0.9242224574912266  0.1511922925449361
  0.0700764447915114  0.7843569207004929  0.4254580031998370
  0.9299235552084884  0.2156430792995072  0.5745419968001632
 -0.0000000000000000  0.5000000000000000  0.0000000000000000
  0.5000000000000000  0.5000000000000000  0.0000000000000000
  0.2045663730681557  0.3516393654697381  0.2815720661138745
  0.7954336269318444  0.6483606345302619  0.7184279338861257
 
  0.00000000E+00  0.00000000E+00  0.00000000E+00
  0.00000000E+00  0.00000000E+00  0.00000000E+00
  0.00000000E+00  0.00000000E+00  0.00000000E+00
  0.00000000E+00  0.00000000E+00  0.00000000E+00
  0.00000000E+00  0.00000000E+00  0.00000000E+00
  0.00000000E+00  0.00000000E+00  0.00000000E+00
  0.00000000E+00  0.00000000E+00  0.00000000E+00
  0.00000000E+00  0.00000000E+00  0.00000000E+00
  0.00000000E+00  0.00000000E+00  0.00000000E+00
  0.00000000E+00  0.00000000E+00  0.00000000E+00
  0.00000000E+00  0.00000000E+00  0.00000000E+00
  0.00000000E+00  0.00000000E+00  0.00000000E+00
  0.00000000E+00  0.00000000E+00  0.00000000E+00
  0.00000000E+00  0.00000000E+00  0.00000000E+00
