#11 (P 21/m) [unique axis c]            
   6.43996999434580     
     0.1990741091649000    0.0000000000000000   -1.3981623039566187
    -0.9973518405419534    0.0000000000000000    0.0000705546665571
     0.0000000000000000    0.4618758331729328    0.0000000000000000
   Fe   Ta
    12     2
Direct
  0.4553720198163943  0.6379693989827121  0.2500000000000000
  0.5446256857788175  0.3620191227327614  0.7500000000000000
  0.0331100054890562  0.3576443854815533  0.2500000000000000
  0.9668924224695435  0.6423314753552641  0.7500000000000000
  0.6079136667906927  0.0823193591904862  0.2500000000000000
  0.3920844856831417  0.9176648883366623  0.7500000000000000
  0.9000581202098638  0.9305339112942882  0.2500000000000000
  0.0999421224688026  0.0694439047537213  0.7500000000000000
  0.1757272034782661  0.7865276635152225  0.2500000000000000
  0.8242731645665863  0.2134488621946628  0.7500000000000000
  0.7575949227772647  0.4904480776666810  0.2500000000000000
  0.2424037295378472  0.5095341952836742  0.7500000000000000
  0.3203101900108084  0.2143678084783656  0.2500000000000000
  0.6796922609229081  0.7856169467339538  0.7500000000000000
 
  0.00000000E+00  0.00000000E+00  0.00000000E+00
  0.00000000E+00  0.00000000E+00  0.00000000E+00
  0.00000000E+00  0.00000000E+00  0.00000000E+00
  0.00000000E+00  0.00000000E+00  0.00000000E+00
  0.00000000E+00  0.00000000E+00  0.00000000E+00
  0.00000000E+00  0.00000000E+00  0.00000000E+00
  0.00000000E+00  0.00000000E+00  0.00000000E+00
  0.00000000E+00  0.00000000E+00  0.00000000E+00
  0.00000000E+00  0.00000000E+00  0.00000000E+00
  0.00000000E+00  0.00000000E+00  0.00000000E+00
  0.00000000E+00  0.00000000E+00  0.00000000E+00
  0.00000000E+00  0.00000000E+00  0.00000000E+00
  0.00000000E+00  0.00000000E+00  0.00000000E+00
  0.00000000E+00  0.00000000E+00  0.00000000E+00
