#10 (P 2/m) [unique axis c]             
   6.41959999913329     
     0.2031640128723437    0.0000000000000000   -1.3975567029210969
    -0.9977161341656932    0.0000000000000000   -0.0004118174250434
     0.0000000000000000    0.4653611477858490    0.0000000000000000
   Fe   Ta
    12     2
Direct
  0.3608665936222523  0.0622414042694047  0.5000000000000000
  0.6391334063777548  0.9377585957305953  0.5000000000000000
  0.9379943629546357  0.7894385459335547  0.5000000000000000
  0.0620056370453643  0.2105614540664453  0.5000000000000000
  0.4275919966959027  0.7868187460193823  0.0000000000000000
  0.5724080033040974  0.2131812539806177 -0.0000000000000000
  0.8564601744908859  0.0688347330919071 -0.0000000000000000
  0.1435398255091141  0.9311652669080929  0.0000000000000000
  0.7883369481485448  0.3461889903943549  0.5000000000000000
  0.2116630518514552  0.6538110096056451  0.5000000000000000
  0.0000000000000000  0.5000000000000000  0.0000000000000000
  0.5000000000000000  0.5000000000000000  0.5000000000000000
  0.2823890612453104  0.3556271367258650  0.0000000000000000
  0.7176109387546825  0.6443728632741350  0.0000000000000000
 
  0.00000000E+00  0.00000000E+00  0.00000000E+00
  0.00000000E+00  0.00000000E+00  0.00000000E+00
  0.00000000E+00  0.00000000E+00  0.00000000E+00
  0.00000000E+00  0.00000000E+00  0.00000000E+00
  0.00000000E+00  0.00000000E+00  0.00000000E+00
  0.00000000E+00  0.00000000E+00  0.00000000E+00
  0.00000000E+00  0.00000000E+00  0.00000000E+00
  0.00000000E+00  0.00000000E+00  0.00000000E+00
  0.00000000E+00  0.00000000E+00  0.00000000E+00
  0.00000000E+00  0.00000000E+00  0.00000000E+00
  0.00000000E+00  0.00000000E+00  0.00000000E+00
  0.00000000E+00  0.00000000E+00  0.00000000E+00
  0.00000000E+00  0.00000000E+00  0.00000000E+00
  0.00000000E+00  0.00000000E+00  0.00000000E+00
