#6 (P m) [unique axis c]                
   16.9359699948893     
     0.9407535592002286    0.0000000000000000    0.2943519057212129
     0.0584415278410457    0.0000000000000000   -0.2916926747691101
     0.0000000000000000    0.2414795272149721    0.0000000000000000
   Fe   Ta
    24     4
Direct
  0.9273591407378239  0.6398452765475451  0.5000000000000000
  0.7862966392653220  0.9290108994059300  0.5000000000000000
  0.4273389200830989  0.1398937647138284  0.0000000000000000
  0.2862943481832215  0.4290324819368104 -0.0000000000000000
  0.8567991110278611  0.2844098110590556 -0.0000000000000000
  0.3567814521222467  0.7844140651344993  0.5000000000000000
  0.6433308691608893  0.2112857409760661  0.5000000000000000
  0.0702724796231923  0.3573839273182267  0.5000000000000000
  0.1433488786001706  0.7113248367028320 -0.0000000000000000
  0.5702488358705540  0.8573714811119331  0.0000000000000000
  0.0710567357007245  0.8396637088863310  0.5000000000000000
  0.6425546178894982  0.7290909883995926  0.5000000000000000
  0.5710313465224143  0.3396835287698386  0.0000000000000000
  0.1425846067670555  0.2291013628616866 -0.0000000000000000
  0.7885163321791920  0.4212664251399710  0.5000000000000000
  0.9251284496421138  0.1475956108893814  0.5000000000000000
  0.2885134226700403  0.9212810459814073  0.0000000000000000
  0.4251102918520794  0.6476197371476119  0.0000000000000000
  0.4993913964560254  0.9993845375947916  0.5000000000000000
  0.2141906241780757  0.5692757728780716  0.5000000000000000
  0.9994367577530194  0.4994049060010644 -0.0000000000000000
  0.7141859356707944  0.0692928985254682 -0.0000000000000000
  0.8567962570124219  0.7844206486680426 -0.0000000000000000
  0.3567768233046346  0.2844392229942445  0.5000000000000000
  0.2136205021894729  0.0689110161117533  0.5000000000000000
  0.4999798288010097  0.4998014060835569  0.5000000000000000
  0.7136158074506657  0.5689286709713146 -0.0000000000000000
  0.0000095892864156 -0.0001637728108564 -0.0000000000000000
 
  0.00000000E+00  0.00000000E+00  0.00000000E+00
  0.00000000E+00  0.00000000E+00  0.00000000E+00
  0.00000000E+00  0.00000000E+00  0.00000000E+00
  0.00000000E+00  0.00000000E+00  0.00000000E+00
  0.00000000E+00  0.00000000E+00  0.00000000E+00
  0.00000000E+00  0.00000000E+00  0.00000000E+00
  0.00000000E+00  0.00000000E+00  0.00000000E+00
  0.00000000E+00  0.00000000E+00  0.00000000E+00
  0.00000000E+00  0.00000000E+00  0.00000000E+00
  0.00000000E+00  0.00000000E+00  0.00000000E+00
  0.00000000E+00  0.00000000E+00  0.00000000E+00
  0.00000000E+00  0.00000000E+00  0.00000000E+00
  0.00000000E+00  0.00000000E+00  0.00000000E+00
  0.00000000E+00  0.00000000E+00  0.00000000E+00
  0.00000000E+00  0.00000000E+00  0.00000000E+00
  0.00000000E+00  0.00000000E+00  0.00000000E+00
  0.00000000E+00  0.00000000E+00  0.00000000E+00
  0.00000000E+00  0.00000000E+00  0.00000000E+00
  0.00000000E+00  0.00000000E+00  0.00000000E+00
  0.00000000E+00  0.00000000E+00  0.00000000E+00
  0.00000000E+00  0.00000000E+00  0.00000000E+00
  0.00000000E+00  0.00000000E+00  0.00000000E+00
  0.00000000E+00  0.00000000E+00  0.00000000E+00
  0.00000000E+00  0.00000000E+00  0.00000000E+00
  0.00000000E+00  0.00000000E+00  0.00000000E+00
  0.00000000E+00  0.00000000E+00  0.00000000E+00
  0.00000000E+00  0.00000000E+00  0.00000000E+00
  0.00000000E+00  0.00000000E+00  0.00000000E+00
