#12 (C 2/m) [unique axis c] cell choice 
   14.7162200137014     
     0.3057348802091041    0.0000000000000000   -0.5337438425046553
    -0.4980633110436877    0.1014091240083035    0.0000795678778873
     0.4980633110436877    0.1014091240083035   -0.0000795678778873
   Fe   Ta
    12     2
Direct
  0.2130870536514589  0.1415646476021325  0.8584353523978675
  0.7869129463485411  0.8584353523978675  0.1415646476021325
  0.3561425816629805  0.5735314524367185  0.4264685475632815
  0.6438574183370196  0.4264685475632815  0.5735314524367185
  0.5677391408102672  0.2167554411528970  0.7832445588471029
  0.4322608591897327  0.7832445588471029  0.2167554411528970
  0.5000000000000000  0.0000000000000000  0.0000000000000000
  0.0000000000000000  0.5000000000000000  0.5000000000000000
  0.1412172768688576  0.9339261775464990  0.0660738224535011
  0.8587827231311425  0.0660738224535011  0.9339261775464990
  0.0646898230253915  0.7073161233915140  0.2926838766084861
  0.9353101769746085  0.2926838766084861  0.7073161233915140
  0.2835320053301562  0.3558980889302648  0.6441019110697352
  0.7164679946698439  0.6441019110697352  0.3558980889302648
 
  0.00000000E+00  0.00000000E+00  0.00000000E+00
  0.00000000E+00  0.00000000E+00  0.00000000E+00
  0.00000000E+00  0.00000000E+00  0.00000000E+00
  0.00000000E+00  0.00000000E+00  0.00000000E+00
  0.00000000E+00  0.00000000E+00  0.00000000E+00
  0.00000000E+00  0.00000000E+00  0.00000000E+00
  0.00000000E+00  0.00000000E+00  0.00000000E+00
  0.00000000E+00  0.00000000E+00  0.00000000E+00
  0.00000000E+00  0.00000000E+00  0.00000000E+00
  0.00000000E+00  0.00000000E+00  0.00000000E+00
  0.00000000E+00  0.00000000E+00  0.00000000E+00
  0.00000000E+00  0.00000000E+00  0.00000000E+00
  0.00000000E+00  0.00000000E+00  0.00000000E+00
  0.00000000E+00  0.00000000E+00  0.00000000E+00
