#2 (P -1)                               
   4.85310000394362     
     0.9970133663186524    0.0001334069959785    0.0002375998776747
     0.3621733374385791    1.1383598062822273    0.0006360198055940
     0.3650692662876237    0.5046766905156010    1.3205016312735818
   Fe   Ta
    12     2
Direct
  0.7978220240696484  0.8869044051565992  0.0754777098245521
  0.2021924415074198  0.1130926355680707  0.9243835167658707
  0.4949775574206597  0.7378169993509280  0.5020995546673426
  0.5050252569379960  0.2621877355626062  0.4977479026610522
  0.9240708281174159  0.9551525498349563  0.3615387351478704
  0.0759406265396573  0.0448409433548784  0.6383483581463641
  0.7921012133559615  0.3892423074369195  0.0766780100609760
  0.2078989299487540  0.6107417467284082  0.9231933317150831
  0.3540471521602571  0.6798430371310015  0.2133303367724481
  0.6459408956114653  0.3201590262140839  0.7865593887456407
  0.9245575593371170  0.4707998184994379  0.3582353042177679
  0.0754430237713900  0.5292018466372878  0.6416320567895051
  0.3580692586884131  0.1767634301343305  0.2144509915926262
  0.6419132325338447  0.8232535183904919  0.7854148028929031
 
  0.00000000E+00  0.00000000E+00  0.00000000E+00
  0.00000000E+00  0.00000000E+00  0.00000000E+00
  0.00000000E+00  0.00000000E+00  0.00000000E+00
  0.00000000E+00  0.00000000E+00  0.00000000E+00
  0.00000000E+00  0.00000000E+00  0.00000000E+00
  0.00000000E+00  0.00000000E+00  0.00000000E+00
  0.00000000E+00  0.00000000E+00  0.00000000E+00
  0.00000000E+00  0.00000000E+00  0.00000000E+00
  0.00000000E+00  0.00000000E+00  0.00000000E+00
  0.00000000E+00  0.00000000E+00  0.00000000E+00
  0.00000000E+00  0.00000000E+00  0.00000000E+00
  0.00000000E+00  0.00000000E+00  0.00000000E+00
  0.00000000E+00  0.00000000E+00  0.00000000E+00
  0.00000000E+00  0.00000000E+00  0.00000000E+00
