#166 (R -3 m)                           
   4.10836000310063     
     0.0000073697003022    0.5758011924771682   -2.8578919910101761
     0.4986696118692381   -0.2879071995714133   -2.8578910584194359
    -0.4986551527935761   -0.2879073610622022   -2.8578919997532841
   Fe   Ta
    12     2
Direct
  0.7123565169663313  0.7123923692941914  0.7123565027429252
  0.2876370489850072  0.2876467243375768  0.2876370578077266
  0.4999954757190633  0.4999971873992290  0.4999954770348912
  0.4306395038321788  0.4306458114505418  0.4306395139886470
  0.5693525089227665  0.5693481240668307  0.5693524995441961
  0.1445603274355807  0.1445771184864919  0.1445603334932763
  0.8554328480822513  0.8554609542226328  0.8554328451641544
 -0.0000017566275508  0.0000036579144423 -0.0000017563116600
  0.7866246249298708  0.7866570615427422  0.7866246225382669
  0.2133692917123999  0.2133815466571233  0.2133692945622328
  0.3566840233118391  0.3566924408278916  0.3566840246234121
  0.6433092833807418  0.6433466788027655  0.6433092816512710
  0.0719380234912598  0.0719593554682337  0.0719380224970176
  0.9280559998582611  0.9280585495293032  0.9280560006636434
 
  0.00000000E+00  0.00000000E+00  0.00000000E+00
  0.00000000E+00  0.00000000E+00  0.00000000E+00
  0.00000000E+00  0.00000000E+00  0.00000000E+00
  0.00000000E+00  0.00000000E+00  0.00000000E+00
  0.00000000E+00  0.00000000E+00  0.00000000E+00
  0.00000000E+00  0.00000000E+00  0.00000000E+00
  0.00000000E+00  0.00000000E+00  0.00000000E+00
  0.00000000E+00  0.00000000E+00  0.00000000E+00
  0.00000000E+00  0.00000000E+00  0.00000000E+00
  0.00000000E+00  0.00000000E+00  0.00000000E+00
  0.00000000E+00  0.00000000E+00  0.00000000E+00
  0.00000000E+00  0.00000000E+00  0.00000000E+00
  0.00000000E+00  0.00000000E+00  0.00000000E+00
  0.00000000E+00  0.00000000E+00  0.00000000E+00
