#65-C2/m2/m2/m                          
  0.999999999904996     
    20.5633754119379546    0.0000000000000000    0.0000000000000000
     0.0000000000000000    4.0858958995471930    0.0000000000000000
     0.0000000000000000    0.0000000000000000    4.0752573162096093
   Fe   Ta
    24     4
Direct
  0.5681798398600800 -0.0000000000000000  0.0000000000000000
  0.4318201601399200 -0.0000000000000000 -0.0000000000000000
  0.0681798398600800  0.5000000000000000  0.0000000000000000
  0.9318201601399200  0.5000000000000000 -0.0000000000000000
  0.7158988330088829 -0.0000000000000000 -0.0000000000000000
  0.2841011669911171 -0.0000000000000000 -0.0000000000000000
  0.2158988330088829  0.5000000000000000 -0.0000000000000000
  0.7841011669911171  0.5000000000000000 -0.0000000000000000
  0.7834266661248218  0.0000000000000000  0.5000000000000000
  0.2165733338751782  0.0000000000000000  0.5000000000000000
  0.2834266661248218  0.5000000000000000  0.5000000000000000
  0.7165733338751782  0.5000000000000000  0.5000000000000000
  0.6418724067132600  0.0000000000000000  0.5000000000000000
  0.3581275932867400  0.0000000000000000  0.5000000000000000
  0.1418724067132600  0.5000000000000000  0.5000000000000000
  0.8581275932867400  0.5000000000000000  0.5000000000000000
 -0.0000000000000000 -0.0000000000000000 -0.0000000000000000
  0.5000000000000000  0.5000000000000000 -0.0000000000000000
  0.5000000000000000 -0.0000000000000000  0.5000000000000000
 -0.0000000000000000  0.5000000000000000  0.5000000000000000
  0.0680865394047635 -0.0000000000000000  0.5000000000000000
  0.9319134605952365 -0.0000000000000000  0.5000000000000000
  0.5680865394047635  0.5000000000000000  0.5000000000000000
  0.4319134605952365  0.5000000000000000  0.5000000000000000
  0.1410731241461970 -0.0000000000000000  0.0000000000000000
  0.8589268758538029 -0.0000000000000000  0.0000000000000000
  0.6410731241461971  0.5000000000000000 -0.0000000000000000
  0.3589268758538030  0.5000000000000000  0.0000000000000000
 
  0.00000000E+00  0.00000000E+00  0.00000000E+00
  0.00000000E+00  0.00000000E+00  0.00000000E+00
  0.00000000E+00  0.00000000E+00  0.00000000E+00
  0.00000000E+00  0.00000000E+00  0.00000000E+00
  0.00000000E+00  0.00000000E+00  0.00000000E+00
  0.00000000E+00  0.00000000E+00  0.00000000E+00
  0.00000000E+00  0.00000000E+00  0.00000000E+00
  0.00000000E+00  0.00000000E+00  0.00000000E+00
  0.00000000E+00  0.00000000E+00  0.00000000E+00
  0.00000000E+00  0.00000000E+00  0.00000000E+00
  0.00000000E+00  0.00000000E+00  0.00000000E+00
  0.00000000E+00  0.00000000E+00  0.00000000E+00
  0.00000000E+00  0.00000000E+00  0.00000000E+00
  0.00000000E+00  0.00000000E+00  0.00000000E+00
  0.00000000E+00  0.00000000E+00  0.00000000E+00
  0.00000000E+00  0.00000000E+00  0.00000000E+00
  0.00000000E+00  0.00000000E+00  0.00000000E+00
  0.00000000E+00  0.00000000E+00  0.00000000E+00
  0.00000000E+00  0.00000000E+00  0.00000000E+00
  0.00000000E+00  0.00000000E+00  0.00000000E+00
  0.00000000E+00  0.00000000E+00  0.00000000E+00
  0.00000000E+00  0.00000000E+00  0.00000000E+00
  0.00000000E+00  0.00000000E+00  0.00000000E+00
  0.00000000E+00  0.00000000E+00  0.00000000E+00
  0.00000000E+00  0.00000000E+00  0.00000000E+00
  0.00000000E+00  0.00000000E+00  0.00000000E+00
  0.00000000E+00  0.00000000E+00  0.00000000E+00
  0.00000000E+00  0.00000000E+00  0.00000000E+00
