AlMn
   1.01639600485675     
     2.7104358694738093    0.0000000000000000    0.0000000000000000
     0.0000000000000000    2.7104358694738093    0.0000000000000000
     0.0000000000000000    0.0000000000000000    3.4169218973193818
   Al   Mn
     1     1
Direct
  0.0000000000000000  0.0000000000000000  0.0000000000000000
  0.5000000000000000  0.5000000000000000  0.5000000000000000
 
  0.00000000E+00  0.00000000E+00  0.00000000E+00
  0.00000000E+00  0.00000000E+00  0.00000000E+00
