#139-I4/m2/m2/m                         
   1.00000000100385     
     2.4590375913464642   -0.0000000000000000    0.0000000000000000
     0.0000000000000000    2.4590375913464642    0.0000000000000000
    -0.0000000000000000    0.0000000000000000   23.7108764082446761
   Fe   B 
    12     2
Direct
  0.0000000000000000 -0.0000000000000000  0.9481526845747271
 -0.0000000000000000 -0.0000000000000000  0.0518473154252729
  0.5000000000000000  0.5000000000000000  0.4481526845747271
  0.5000000000000000  0.5000000000000000  0.5518473154252729
 -0.0000000000000000 -0.0000000000000000  0.3736256993752369
  0.0000000000000000 -0.0000000000000000  0.6263743006247631
  0.5000000000000000  0.5000000000000000  0.8736256993752369
  0.5000000000000000  0.5000000000000000  0.1263743006247631
  0.0000000000000000  0.0000000000000000  0.2084987715747258
 -0.0000000000000000  0.0000000000000000  0.7915012284252743
  0.5000000000000000  0.5000000000000000  0.7084987715747257
  0.5000000000000000  0.5000000000000000  0.2915012284252742
 -0.0000000000000000 -0.0000000000000000  0.5000000000000000
  0.5000000000000000  0.5000000000000000 -0.0000000000000000
 
  0.00000000E+00  0.00000000E+00  0.00000000E+00
  0.00000000E+00  0.00000000E+00  0.00000000E+00
  0.00000000E+00  0.00000000E+00  0.00000000E+00
  0.00000000E+00  0.00000000E+00  0.00000000E+00
  0.00000000E+00  0.00000000E+00  0.00000000E+00
  0.00000000E+00  0.00000000E+00  0.00000000E+00
  0.00000000E+00  0.00000000E+00  0.00000000E+00
  0.00000000E+00  0.00000000E+00  0.00000000E+00
  0.00000000E+00  0.00000000E+00  0.00000000E+00
  0.00000000E+00  0.00000000E+00  0.00000000E+00
  0.00000000E+00  0.00000000E+00  0.00000000E+00
  0.00000000E+00  0.00000000E+00  0.00000000E+00
  0.00000000E+00  0.00000000E+00  0.00000000E+00
  0.00000000E+00  0.00000000E+00  0.00000000E+00
