#69 (F m m m)                           
   3.95493000538056     
     0.4985234860503621    0.0000000000000000   -3.2293220165734375
     0.0000000000000000    0.3721370290002320   -3.2293220165734375
     0.4985234860503621    0.3721370290002320    0.0000000000000000
   Fe   B 
     6     1
Direct
  0.2892331907305090  0.2892331907305090  0.7107668092694910
  0.7107668092694910  0.7107668092694910  0.2892331907305090
  0.5541854371292743  0.5541854371292743  0.4458145628707257
  0.4458145628707257  0.4458145628707257  0.5541854371292743
  0.1329113695013667  0.1329113695013667  0.8670886304986333
  0.8670886304986333  0.8670886304986333  0.1329113695013667
  0.0000000000000000  0.0000000000000000 -0.0000000000000000
 
  0.00000000E+00  0.00000000E+00  0.00000000E+00
  0.00000000E+00  0.00000000E+00  0.00000000E+00
  0.00000000E+00  0.00000000E+00  0.00000000E+00
  0.00000000E+00  0.00000000E+00  0.00000000E+00
  0.00000000E+00  0.00000000E+00  0.00000000E+00
  0.00000000E+00  0.00000000E+00  0.00000000E+00
  0.00000000E+00  0.00000000E+00  0.00000000E+00
