#10 (P 2/m) [unique axis c]             
   4.03843000542433     
     0.1958598741458013    0.0000000000000000   -1.6133426980585557
    -0.9920770033043730    0.0000000000000000   -0.0047554780080678
     0.0000000000000000    0.7249699862918889    0.0000000000000000
   Fe   B 
     6     1
Direct
  0.8102396586591873  0.5448760284882507 -0.0000000000000000
  0.1897603413408127  0.4551239715117492  0.0000000000000000
  0.1978330772691305  0.9473826309716995  0.5000000000000000
  0.8021669227308694  0.0526173690283005  0.5000000000000000
  0.5000000000000000  0.0000000000000000  0.0000000000000000
  0.5000000000000000  0.5000000000000000  0.5000000000000000
 -0.0000000000000000  0.0000000000000000  0.0000000000000000
 
  0.00000000E+00  0.00000000E+00  0.00000000E+00
  0.00000000E+00  0.00000000E+00  0.00000000E+00
  0.00000000E+00  0.00000000E+00  0.00000000E+00
  0.00000000E+00  0.00000000E+00  0.00000000E+00
  0.00000000E+00  0.00000000E+00  0.00000000E+00
  0.00000000E+00  0.00000000E+00  0.00000000E+00
  0.00000000E+00  0.00000000E+00  0.00000000E+00
