#38 (A m m 2)                           
   2.79999999416387     
     0.9958006054910270    0.0000000000000000    0.0000000000000000
     0.0000000000000000   -0.5005844367159004   -3.3536527583039186
     0.0000000000000000    0.5005844367159004   -3.3536527583039186
   Fe   B 
     6     1
Direct
  0.5000000000000000  0.8463546077711717  0.8463546077711717
  0.5000000000000000  0.6937585714078244  0.6937585714078244
  0.0000000000000000  0.2700653576638480  0.2700653576638480
  0.5000000000000000  0.5373897227422882  0.5373897227422882
  0.0000000000000000  0.1179161707193812  0.1179161707193812
  0.0000000000000000  0.4210493965350632  0.4210493965350632
  0.0000000000000000  0.0002361731604362  0.0002361731604362
 
  0.00000000E+00  0.00000000E+00  0.00000000E+00
  0.00000000E+00  0.00000000E+00  0.00000000E+00
  0.00000000E+00  0.00000000E+00  0.00000000E+00
  0.00000000E+00  0.00000000E+00  0.00000000E+00
  0.00000000E+00  0.00000000E+00  0.00000000E+00
  0.00000000E+00  0.00000000E+00  0.00000000E+00
  0.00000000E+00  0.00000000E+00  0.00000000E+00
