#12 (C 2/m) [unique axis c] cell choice 
   13.3824700058160     
     0.0603477989420334    0.0000000000000000   -0.2916203230680249
    -0.5005242170792580    0.1093251711147126    0.0012894110511935
     0.5005242170792580    0.1093251711147126   -0.0012894110511935
   Fe   B 
     6     1
Direct
  0.7486801380623053  0.7477377036247960  0.2522622963752040
  0.2513198619376947  0.2522622963752040  0.7477377036247960
  0.6290212729626179  0.0924657550956893  0.9075342449043107
  0.3709787270373819  0.9075342449043107  0.0924657550956893
  0.1426820868922506  0.6008206094076950  0.3991793905923050
  0.8573179131077494  0.3991793905923050  0.6008206094076950
  0.0000000000000000 -0.0000000000000000  0.0000000000000000
 
  0.00000000E+00  0.00000000E+00  0.00000000E+00
  0.00000000E+00  0.00000000E+00  0.00000000E+00
  0.00000000E+00  0.00000000E+00  0.00000000E+00
  0.00000000E+00  0.00000000E+00  0.00000000E+00
  0.00000000E+00  0.00000000E+00  0.00000000E+00
  0.00000000E+00  0.00000000E+00  0.00000000E+00
  0.00000000E+00  0.00000000E+00  0.00000000E+00
