#12 (C 2/m) [unique axis c] cell choice 
   8.82609001800039     
     0.1345796171265974    0.0000000000000000   -0.6919951203742533
    -0.4966312285366182    0.1405599853478214    0.0001771420051459
     0.4966312285366182    0.1405599853478214   -0.0001771420051459
   Fe   B 
     6     1
Direct
  0.5317754349733789  0.8679051736625665  0.1320948263374335
  0.4682245650266213  0.1320948263374335  0.8679051736625665
  0.7676212236293192  0.5646876947414241  0.4353123052585758
  0.2323787763706808  0.4353123052585758  0.5646876947414241
  0.1459584931231345  0.6966905167842349  0.3033094832157652
  0.8540415068768656  0.3033094832157652  0.6966905167842349
 -0.0000000000000000 -0.0000000000000000  0.0000000000000000
 
  0.00000000E+00  0.00000000E+00  0.00000000E+00
  0.00000000E+00  0.00000000E+00  0.00000000E+00
  0.00000000E+00  0.00000000E+00  0.00000000E+00
  0.00000000E+00  0.00000000E+00  0.00000000E+00
  0.00000000E+00  0.00000000E+00  0.00000000E+00
  0.00000000E+00  0.00000000E+00  0.00000000E+00
  0.00000000E+00  0.00000000E+00  0.00000000E+00
