#11 (P 21/m) [unique axis c]            
   5.04208999605019     
     0.1637734524711656    0.0000000000000000   -1.8756801491888455
    -0.9961676701568831    0.0000000000000000   -0.0016474103514388
     0.0000000000000000    0.8092371076554596    0.0000000000000000
   Fe   Ta
    14     2
Direct
  0.8182245482098709  0.7310973945341587  0.2500000000000000
  0.1817218348213254  0.2688903317801314  0.7500000000000000
  0.0612924205689263  0.0914954416582720  0.2500000000000000
  0.9386712151203378  0.9084990966752318  0.7500000000000000
  0.8155048291007750  0.2194560777910791  0.2500000000000000
  0.1844646529661104  0.7805512864441191  0.7500000000000000
  0.5625847231154274  0.3294519958581814  0.2500000000000000
  0.4373593546753650  0.6705477613713134  0.7500000000000000
  0.5636604999181455  0.8473386811924466  0.2500000000000000
  0.4363166449348695  0.1526598300666262  0.7500000000000000
  0.0574871235183039  0.5957730042378179  0.2500000000000000
  0.9424559059681024  0.4042404185161774  0.7500000000000000
  0.3112483347923182  0.9670878870764591  0.2500000000000000
  0.6887225352986569  0.0329077548991229  0.7500000000000000
  0.3115461005410308  0.4676920895373992  0.2500000000000000
  0.6883992764504330  0.5323109483614638  0.7500000000000000
 
  0.00000000E+00  0.00000000E+00  0.00000000E+00
  0.00000000E+00  0.00000000E+00  0.00000000E+00
  0.00000000E+00  0.00000000E+00  0.00000000E+00
  0.00000000E+00  0.00000000E+00  0.00000000E+00
  0.00000000E+00  0.00000000E+00  0.00000000E+00
  0.00000000E+00  0.00000000E+00  0.00000000E+00
  0.00000000E+00  0.00000000E+00  0.00000000E+00
  0.00000000E+00  0.00000000E+00  0.00000000E+00
  0.00000000E+00  0.00000000E+00  0.00000000E+00
  0.00000000E+00  0.00000000E+00  0.00000000E+00
  0.00000000E+00  0.00000000E+00  0.00000000E+00
  0.00000000E+00  0.00000000E+00  0.00000000E+00
  0.00000000E+00  0.00000000E+00  0.00000000E+00
  0.00000000E+00  0.00000000E+00  0.00000000E+00
  0.00000000E+00  0.00000000E+00  0.00000000E+00
  0.00000000E+00  0.00000000E+00  0.00000000E+00
