#11 (P 21/m) [unique axis c]            
   5.03899000071357     
     0.3340601409099902    0.0000000000000000   -1.8764768541213881
    -0.9966775735974516    0.0000000000000000    0.0016361852977980
     0.0000000000000000    0.8098860620260142    0.0000000000000000
   Fe   Ta
    14     2
Direct
  0.6851719571063815  0.5623341470046928  0.2500000000000000
  0.3147711373104472  0.4376813627175584  0.7500000000000000
  0.6810963489410966  0.0699428423151503  0.2500000000000000
  0.3188484427147382  0.9300365996900255  0.7500000000000000
  0.9376507493303327  0.7979005914015227  0.2500000000000000
  0.0622989439591186  0.2021142533485590  0.7500000000000000
  0.4423313759392156  0.3170804885552863  0.2500000000000000
  0.5576251117180473  0.6829200814707067  0.7500000000000000
  0.9357129522330154  0.3146625997606583  0.2500000000000000
  0.0642028887774955  0.6853378286878924  0.7500000000000000
  0.1882377303038117  0.5613100703320484  0.2500000000000000
  0.8116761996043360  0.4386911196319194  0.7500000000000000
  0.4389923026756071  0.8105726754079643  0.2500000000000000
  0.5609447448501934  0.1893938038657206  0.7500000000000000
  0.1887666810856237  0.0619578901071758  0.2500000000000000
  0.8111924334505505  0.9380636457031122  0.7500000000000000
 
  0.00000000E+00  0.00000000E+00  0.00000000E+00
  0.00000000E+00  0.00000000E+00  0.00000000E+00
  0.00000000E+00  0.00000000E+00  0.00000000E+00
  0.00000000E+00  0.00000000E+00  0.00000000E+00
  0.00000000E+00  0.00000000E+00  0.00000000E+00
  0.00000000E+00  0.00000000E+00  0.00000000E+00
  0.00000000E+00  0.00000000E+00  0.00000000E+00
  0.00000000E+00  0.00000000E+00  0.00000000E+00
  0.00000000E+00  0.00000000E+00  0.00000000E+00
  0.00000000E+00  0.00000000E+00  0.00000000E+00
  0.00000000E+00  0.00000000E+00  0.00000000E+00
  0.00000000E+00  0.00000000E+00  0.00000000E+00
  0.00000000E+00  0.00000000E+00  0.00000000E+00
  0.00000000E+00  0.00000000E+00  0.00000000E+00
  0.00000000E+00  0.00000000E+00  0.00000000E+00
  0.00000000E+00  0.00000000E+00  0.00000000E+00
