#10 (P 2/m) [unique axis c]             
   8.70464000327666     
     0.4613934864970211    0.0000000000000000   -1.2706614457346561
    -0.9953959145663167    0.0000000000000000    0.0008647301973149
     0.0000000000000000    0.4662247899665580    0.0000000000000000
   Fe   Ta
    28     4
Direct
  0.4336333687758323  0.2462040245222876  0.5000000000000000
  0.5663589232937195  0.7537740317976042  0.5000000000000000
  0.4336293196577518  0.7462040315444822 -0.0000000000000000
  0.5663678959030511  0.2537721871025251 -0.0000000000000000
  0.1203807190938843  0.5025240253874343  0.5000000000000000
  0.8796181167347525  0.4974439135432329  0.5000000000000000
  0.1203813943261302  0.0025182220102222 -0.0000000000000000
  0.8796269040506889  0.9975113948779222 -0.0000000000000000
  0.3043150637859483  0.7567848304426023  0.5000000000000000
  0.6956861898125214  0.2431923785934357  0.5000000000000000
  0.3043082498726353  0.2567743067608122  0.0000000000000000
  0.6956891043847530  0.7431986000233255  0.0000000000000000
  0.1786334012041282  0.2493021663983002  0.5000000000000000
  0.8213664564049781  0.7506690585774407  0.5000000000000000
  0.1786329923294706  0.7493067766990430  0.0000000000000000
  0.8213649110513124  0.2506751092577661  0.0000000000000000
  0.9402484676740869  0.2500389908658090  0.5000000000000000
  0.0597562474059748  0.7499601977965766  0.5000000000000000
  0.9402370305986465  0.7500506904344754 -0.0000000000000000
  0.0597703238631091  0.2499750607885035  0.0000000000000000
  0.4999930010646606  0.4999844539976716  0.0000000000000000
  0.5000024163983640  0.9999945571876052  0.5000000000000000
  0.7622530169209900  0.9959767054589032  0.5000000000000000
  0.2377505645887527  0.0040055402945790  0.5000000000000000
  0.7622553045647795  0.4959746686102800 -0.0000000000000000
  0.2377509009394672  0.5040080372937001  0.0000000000000000
  0.0000030700351799  0.4999826730265736  0.0000000000000000
  0.9999940289918970  0.9999808710187715  0.5000000000000000
  0.3685976404060623  0.5026769164210635  0.5000000000000000
  0.6313945160467104  0.4972982920657938  0.5000000000000000
  0.3686015504352283  0.0026811559000978  0.0000000000000000
  0.6313989093845045  0.9973061313011728  0.0000000000000000
 
  0.00000000E+00  0.00000000E+00  0.00000000E+00
  0.00000000E+00  0.00000000E+00  0.00000000E+00
  0.00000000E+00  0.00000000E+00  0.00000000E+00
  0.00000000E+00  0.00000000E+00  0.00000000E+00
  0.00000000E+00  0.00000000E+00  0.00000000E+00
  0.00000000E+00  0.00000000E+00  0.00000000E+00
  0.00000000E+00  0.00000000E+00  0.00000000E+00
  0.00000000E+00  0.00000000E+00  0.00000000E+00
  0.00000000E+00  0.00000000E+00  0.00000000E+00
  0.00000000E+00  0.00000000E+00  0.00000000E+00
  0.00000000E+00  0.00000000E+00  0.00000000E+00
  0.00000000E+00  0.00000000E+00  0.00000000E+00
  0.00000000E+00  0.00000000E+00  0.00000000E+00
  0.00000000E+00  0.00000000E+00  0.00000000E+00
  0.00000000E+00  0.00000000E+00  0.00000000E+00
  0.00000000E+00  0.00000000E+00  0.00000000E+00
  0.00000000E+00  0.00000000E+00  0.00000000E+00
  0.00000000E+00  0.00000000E+00  0.00000000E+00
  0.00000000E+00  0.00000000E+00  0.00000000E+00
  0.00000000E+00  0.00000000E+00  0.00000000E+00
  0.00000000E+00  0.00000000E+00  0.00000000E+00
  0.00000000E+00  0.00000000E+00  0.00000000E+00
  0.00000000E+00  0.00000000E+00  0.00000000E+00
  0.00000000E+00  0.00000000E+00  0.00000000E+00
  0.00000000E+00  0.00000000E+00  0.00000000E+00
  0.00000000E+00  0.00000000E+00  0.00000000E+00
  0.00000000E+00  0.00000000E+00  0.00000000E+00
  0.00000000E+00  0.00000000E+00  0.00000000E+00
  0.00000000E+00  0.00000000E+00  0.00000000E+00
  0.00000000E+00  0.00000000E+00  0.00000000E+00
  0.00000000E+00  0.00000000E+00  0.00000000E+00
  0.00000000E+00  0.00000000E+00  0.00000000E+00
