#10 (P 2/m) [unique axis c]             
   17.2781700024280     
     0.9349348614132320    0.0000000000000000    0.2898755585698454
     0.0635650581155856    0.0000000000000000   -0.2894887645585525
     0.0000000000000000    0.2440775423667385    0.0000000000000000
   Fe   Ta
    20     8
Direct
  0.7152303964995711  0.0704667943183672  0.5000000000000000
  0.2847393783143763  0.9294793653563735  0.5000000000000000
  0.2152411266462153  0.5705069635002462 -0.0000000000000000
  0.7847349932113130  0.4294550063023668  0.0000000000000000
  0.1468073486506113  0.7160479946686199  0.5000000000000000
  0.8531699587945243  0.2839324527609118  0.5000000000000000
  0.6467841217348494  0.2159908481138706 -0.0000000000000000
  0.3531728645969637  0.7839530168303046 -0.0000000000000000
  0.2853826208541619  0.4431255167732074  0.5000000000000000
  0.7145934795201487  0.5568168521221288  0.5000000000000000
  0.7853852391486714  0.9430957512862821  0.0000000000000000
  0.2145975801681748  0.0568664180411384  0.0000000000000000
  0.5718983714959559  0.8459514691707354  0.5000000000000000
  0.4280851275764167  0.1540388512885948  0.5000000000000000
  0.0718933037968214  0.3459708051367906  0.0000000000000000
  0.9280898707266915  0.6540305929148889 -0.0000000000000000
  0.4999949112483446  0.5000257045949756 -0.0000000000000000
  0.9999953971683027  0.0000047297347900  0.5000000000000000
  0.4999965445424948  0.0000137303153480 -0.0000000000000000
  0.9999936302888256  0.5000039592051293  0.5000000000000000
  0.4277475090322632  0.6628616560700707  0.5000000000000000
  0.5722256651455649  0.3371182150666331  0.5000000000000000
  0.9277465660413108  0.1628478579431721  0.0000000000000000
  0.0722305327380491  0.8371406511127006 -0.0000000000000000
  0.8536741941486462  0.7772170565015452  0.5000000000000000
  0.1463026158793831  0.2227700531110532  0.5000000000000000
  0.3536775905608393  0.2772290970848622 -0.0000000000000000
  0.6462990614705171  0.7227285906748869 -0.0000000000000000
 
  0.00000000E+00  0.00000000E+00  0.00000000E+00
  0.00000000E+00  0.00000000E+00  0.00000000E+00
  0.00000000E+00  0.00000000E+00  0.00000000E+00
  0.00000000E+00  0.00000000E+00  0.00000000E+00
  0.00000000E+00  0.00000000E+00  0.00000000E+00
  0.00000000E+00  0.00000000E+00  0.00000000E+00
  0.00000000E+00  0.00000000E+00  0.00000000E+00
  0.00000000E+00  0.00000000E+00  0.00000000E+00
  0.00000000E+00  0.00000000E+00  0.00000000E+00
  0.00000000E+00  0.00000000E+00  0.00000000E+00
  0.00000000E+00  0.00000000E+00  0.00000000E+00
  0.00000000E+00  0.00000000E+00  0.00000000E+00
  0.00000000E+00  0.00000000E+00  0.00000000E+00
  0.00000000E+00  0.00000000E+00  0.00000000E+00
  0.00000000E+00  0.00000000E+00  0.00000000E+00
  0.00000000E+00  0.00000000E+00  0.00000000E+00
  0.00000000E+00  0.00000000E+00  0.00000000E+00
  0.00000000E+00  0.00000000E+00  0.00000000E+00
  0.00000000E+00  0.00000000E+00  0.00000000E+00
  0.00000000E+00  0.00000000E+00  0.00000000E+00
  0.00000000E+00  0.00000000E+00  0.00000000E+00
  0.00000000E+00  0.00000000E+00  0.00000000E+00
  0.00000000E+00  0.00000000E+00  0.00000000E+00
  0.00000000E+00  0.00000000E+00  0.00000000E+00
  0.00000000E+00  0.00000000E+00  0.00000000E+00
  0.00000000E+00  0.00000000E+00  0.00000000E+00
  0.00000000E+00  0.00000000E+00  0.00000000E+00
  0.00000000E+00  0.00000000E+00  0.00000000E+00
