#8 (C m) [unique axis c] cell choice 1  
   17.3194200066490     
     0.0586109763518421    0.0000000000000000   -0.2908911389955177
    -0.4994097479221754    0.1209206357187735   -0.0000765507665318
     0.4994097479221754    0.1209206357187735    0.0000765507665318
   Fe   Ta
    10     4
Direct
  0.7241573358728859  0.5720593860883907  0.4279406139116094
  0.7731594139173975  0.4330883980983058  0.5669116019016941
  0.2929722078947435  0.4318489171360031  0.5681510828639970
  0.6641100969450870  0.7178633358639648  0.2821366641360352
  0.3710551250946261  0.2911650965240374  0.7088349034759628
  0.5799864428928815  0.8608891560160713  0.1391108439839287
  0.0953163135811242  0.8616859488454400  0.1383140511545598
  0.2270436449173332  0.5717747144468255  0.4282252855531746
  0.9522511741349899  0.1460762655283922  0.8539237344716079
  0.5023954710333736  0.9981982904489420  0.0018017095510579
  0.8689139434455608  0.2959099891727600  0.7040900108272402
  0.1631567555448273  0.7176638013244544  0.2823361986755457
  0.4590576968491528  0.1414841643303800  0.8585158356696200
  0.0004143778760270  0.9999325361760243  0.0000674638239758
 
  0.00000000E+00  0.00000000E+00  0.00000000E+00
  0.00000000E+00  0.00000000E+00  0.00000000E+00
  0.00000000E+00  0.00000000E+00  0.00000000E+00
  0.00000000E+00  0.00000000E+00  0.00000000E+00
  0.00000000E+00  0.00000000E+00  0.00000000E+00
  0.00000000E+00  0.00000000E+00  0.00000000E+00
  0.00000000E+00  0.00000000E+00  0.00000000E+00
  0.00000000E+00  0.00000000E+00  0.00000000E+00
  0.00000000E+00  0.00000000E+00  0.00000000E+00
  0.00000000E+00  0.00000000E+00  0.00000000E+00
  0.00000000E+00  0.00000000E+00  0.00000000E+00
  0.00000000E+00  0.00000000E+00  0.00000000E+00
  0.00000000E+00  0.00000000E+00  0.00000000E+00
  0.00000000E+00  0.00000000E+00  0.00000000E+00
