#2 (P -1)                               
   5.14404000259422     
     0.9980754114838205    0.0004974602454776   -0.0004188907561793
    -0.2897647273069110    1.2399911177586334    0.0001675513306844
    -0.3443070267605187   -0.5967947096029533    1.0823585522380952
   Fe   Ta
    10     4
Direct
  0.7087823906930135  0.2798770165513785  0.3584726567286112
  0.2912176093069864  0.7201229834486216  0.6415273432713887
  0.9271479783283604  0.5707603728671455  0.2137127561855727
  0.0728520216716396  0.4292396271328545  0.7862872438144274
  0.8634451617228021  0.1487988308085283  0.9266463107021840
  0.1365548382771980  0.8512011691914717  0.0733536892978160
  0.4097858995584135  0.5711697671700148  0.2156049448215549
  0.5902141004415865  0.4288302328299853  0.7843950551784451
  0.0000000000000000  0.0000000000000000  0.5000000000000000
  0.5000000000000000  0.0000000000000000  0.5000000000000000
  0.6329277915708647  0.8439810196629203  0.0737627691071615
  0.3670722084291353  0.1560189803370797  0.9262372308928385
  0.2080643576269152  0.2856253592563258  0.3635714745869943
  0.7919356423730848  0.7143746407436742  0.6364285254130058
 
  0.00000000E+00  0.00000000E+00  0.00000000E+00
  0.00000000E+00  0.00000000E+00  0.00000000E+00
  0.00000000E+00  0.00000000E+00  0.00000000E+00
  0.00000000E+00  0.00000000E+00  0.00000000E+00
  0.00000000E+00  0.00000000E+00  0.00000000E+00
  0.00000000E+00  0.00000000E+00  0.00000000E+00
  0.00000000E+00  0.00000000E+00  0.00000000E+00
  0.00000000E+00  0.00000000E+00  0.00000000E+00
  0.00000000E+00  0.00000000E+00  0.00000000E+00
  0.00000000E+00  0.00000000E+00  0.00000000E+00
  0.00000000E+00  0.00000000E+00  0.00000000E+00
  0.00000000E+00  0.00000000E+00  0.00000000E+00
  0.00000000E+00  0.00000000E+00  0.00000000E+00
  0.00000000E+00  0.00000000E+00  0.00000000E+00
