#64 (C m c a)                           
   4.74442999658665     
    -0.4997998693230931    1.3111055078955081    0.0000000000000000
    -0.4997998693230931   -1.3111055078955081    0.0000000000000000
     0.0000000000000000    0.0000000000000000    1.2969040298137977
   Fe   Ta
    10     4
Direct
  0.0000000000000000  0.0000000000000000  0.0000000000000000
  0.5000000000000000  0.5000000000000000  0.5000000000000000
  0.4248574010776025  0.5751425989223975  0.1112069310874730
  0.5751425989223975  0.4248574010776025  0.8887930689125270
  0.9248574010776025  0.0751425989223975  0.3887930689125270
  0.0751425989223975  0.9248574010776025  0.6112069310874730
  0.3601517346626011  0.1398482653373989  0.2500000000000000
  0.1398482653373989  0.3601517346626011  0.7500000000000000
  0.6398482653373989  0.8601517346626011  0.7500000000000000
  0.8601517346626011  0.6398482653373989  0.2500000000000000
  0.7885415821097723  0.2114584178902277  0.0979295987337565
  0.2114584178902277  0.7885415821097723  0.9020704012662435
  0.2885415821097723  0.7114584178902277  0.4020704012662435
  0.7114584178902277  0.2885415821097723  0.5979295987337565
 
  0.00000000E+00  0.00000000E+00  0.00000000E+00
  0.00000000E+00  0.00000000E+00  0.00000000E+00
  0.00000000E+00  0.00000000E+00  0.00000000E+00
  0.00000000E+00  0.00000000E+00  0.00000000E+00
  0.00000000E+00  0.00000000E+00  0.00000000E+00
  0.00000000E+00  0.00000000E+00  0.00000000E+00
  0.00000000E+00  0.00000000E+00  0.00000000E+00
  0.00000000E+00  0.00000000E+00  0.00000000E+00
  0.00000000E+00  0.00000000E+00  0.00000000E+00
  0.00000000E+00  0.00000000E+00  0.00000000E+00
  0.00000000E+00  0.00000000E+00  0.00000000E+00
  0.00000000E+00  0.00000000E+00  0.00000000E+00
  0.00000000E+00  0.00000000E+00  0.00000000E+00
  0.00000000E+00  0.00000000E+00  0.00000000E+00
