#6 (P m) [unique axis c]                
   16.8207799926933     
    -0.9236420126722494    0.0000000000000000   -0.2704551357917462
    -0.0745412654467589    0.0000000000000000    0.2703814178203894
     0.0000000000000000    0.2826694460953639    0.0000000000000000
   Fe   Ta
    20     8
Direct
  0.6300219193981265  0.2640194159482320  0.7457266884280120
  0.6300219193981265  0.2640194159482320  0.2542733115719878
  0.1300193796058291  0.7640266264385271  0.2457264858632437
  0.1300193796058291  0.7640266264385271  0.7542735141367561
  0.2362503253974992  0.5165048120016457  0.5000000000000000
  0.7362493399138077  0.0164948158914822 -0.0000000000000000
  0.3595994055325599  0.7783415774010510  0.5000000000000000
  0.8595958159956575  0.2783333496845837 -0.0000000000000000
  0.2341716812947733  0.0217317576592278  0.5000000000000000
  0.7341714276064784  0.5217257043830446 -0.0000000000000000
  0.0001102088329133  0.7642639115329457  0.5000000000000000
  0.5001104330636010  0.2642635510825502 -0.0000000000000000
  0.8570235723801863  0.7712693207683097  0.7482288895112208
  0.8570235723801863  0.7712693207683097  0.2517711104887793
  0.3570251443480559  0.2712642092282063  0.2482303240560067
  0.3570251443480559  0.2712642092282063  0.7517696759439932
  0.7692335998709222  0.2707876921231572  0.5000000000000000
  0.2692318247070639  0.7707912074690008 -0.0000000000000000
  0.5072493582986589  0.9946368576657777  0.5000000000000000
  0.0072502593761424  0.4946552907883333 -0.0000000000000000
  0.9189060687346096  0.2785584545513999  0.5000000000000000
  0.4189086378299256  0.7785614197488691 -0.0000000000000000
  0.0883090517484489  0.2689721419698533  0.5000000000000000
  0.5883118547159477  0.7689610045064253 -0.0000000000000000
  0.6933630785745312  0.7662388840496308  0.5000000000000000
  0.1933623679451117  0.2662453665751455 -0.0000000000000000
  0.5000115435018520  0.4991322300099281  0.5000000000000000
  0.0000136855951076  0.9991508261393716 -0.0000000000000000
 
  0.00000000E+00  0.00000000E+00  0.00000000E+00
  0.00000000E+00  0.00000000E+00  0.00000000E+00
  0.00000000E+00  0.00000000E+00  0.00000000E+00
  0.00000000E+00  0.00000000E+00  0.00000000E+00
  0.00000000E+00  0.00000000E+00  0.00000000E+00
  0.00000000E+00  0.00000000E+00  0.00000000E+00
  0.00000000E+00  0.00000000E+00  0.00000000E+00
  0.00000000E+00  0.00000000E+00  0.00000000E+00
  0.00000000E+00  0.00000000E+00  0.00000000E+00
  0.00000000E+00  0.00000000E+00  0.00000000E+00
  0.00000000E+00  0.00000000E+00  0.00000000E+00
  0.00000000E+00  0.00000000E+00  0.00000000E+00
  0.00000000E+00  0.00000000E+00  0.00000000E+00
  0.00000000E+00  0.00000000E+00  0.00000000E+00
  0.00000000E+00  0.00000000E+00  0.00000000E+00
  0.00000000E+00  0.00000000E+00  0.00000000E+00
  0.00000000E+00  0.00000000E+00  0.00000000E+00
  0.00000000E+00  0.00000000E+00  0.00000000E+00
  0.00000000E+00  0.00000000E+00  0.00000000E+00
  0.00000000E+00  0.00000000E+00  0.00000000E+00
  0.00000000E+00  0.00000000E+00  0.00000000E+00
  0.00000000E+00  0.00000000E+00  0.00000000E+00
  0.00000000E+00  0.00000000E+00  0.00000000E+00
  0.00000000E+00  0.00000000E+00  0.00000000E+00
  0.00000000E+00  0.00000000E+00  0.00000000E+00
  0.00000000E+00  0.00000000E+00  0.00000000E+00
  0.00000000E+00  0.00000000E+00  0.00000000E+00
  0.00000000E+00  0.00000000E+00  0.00000000E+00
