#186 (P 63 m c)                         
   4.72248999631123     
     0.9994640830418721   -0.0000050482974991   -0.0000000000000000
    -0.4997364134727832    0.8655583588091996    0.0000000000000000
     0.0000000000000000   -0.0000000000000000    2.0107656008256978
   Fe   Ta
    10     4
Direct
  0.5009890813569102  0.4990109186431114  0.1270295561917436
  0.0019780656431992  0.5009891710683136  0.6270294374896038
  0.5009891710683136  0.0019780656431778  0.1270294374896039
  0.4990109186430899  0.5009890813568887  0.6270295561917435
  0.9980219343568008  0.4990108289316865  0.1270294374896039
  0.4990108289316865  0.9980219343568224  0.6270294374896038
  0.3333302347148503  0.6666697652851497  0.8715706764444064
  0.6666597652851465  0.3333302347148503  0.3715706764444063
  0.0000000215920508  0.9999999784079492  0.7548061681173678
  0.9999999784079492  0.0000000215920508  0.2548061681173678
  0.3333300086267954  0.6666699913732046  0.3686708461835558
  0.6666599913732014  0.3333300086267954  0.8686708461835557
  0.0000000441762467  0.9999999558237533  0.4998338780837140
  0.9999999558237533  0.0000000441762467 -0.0001661219162789
 
  0.00000000E+00  0.00000000E+00  0.00000000E+00
  0.00000000E+00  0.00000000E+00  0.00000000E+00
  0.00000000E+00  0.00000000E+00  0.00000000E+00
  0.00000000E+00  0.00000000E+00  0.00000000E+00
  0.00000000E+00  0.00000000E+00  0.00000000E+00
  0.00000000E+00  0.00000000E+00  0.00000000E+00
  0.00000000E+00  0.00000000E+00  0.00000000E+00
  0.00000000E+00  0.00000000E+00  0.00000000E+00
  0.00000000E+00  0.00000000E+00  0.00000000E+00
  0.00000000E+00  0.00000000E+00  0.00000000E+00
  0.00000000E+00  0.00000000E+00  0.00000000E+00
  0.00000000E+00  0.00000000E+00  0.00000000E+00
  0.00000000E+00  0.00000000E+00  0.00000000E+00
  0.00000000E+00  0.00000000E+00  0.00000000E+00
