#8 (C m) [unique axis c] cell choice 1  
   16.3167200057424     
     0.0463947104584922    0.0000000000000000   -0.2893771653105590
    -0.4990156988259323    0.1447418609062973    0.0001810831472086
     0.4990156988259323    0.1447418609062973   -0.0001810831472086
   Fe   Ta
    10     4
Direct
  0.3084730206160938  0.5542806092400868  0.4457193907599131
  0.8798142119349587  0.2548026318733439  0.7451973681266560
  0.7620129316803547  0.5178411620756544  0.4821588379243457
  0.0662453142884603  0.4003450203762262  0.1025224785214094
  0.0662453142884603  0.8974775214785835  0.5996549796237739
  0.3778966065886686  0.2540671076573618  0.7459328923426382
  0.6972151020606472  0.1096531519715598  0.3850284830814553
  0.6972151020606472  0.6149715169185447  0.8903468480284402
  0.5543905936460051  0.1109539507489578  0.8890460492510421
  0.4690861941920985  0.9646582202512686  0.0353417797487315
  0.1582569573622007  0.8058337561877780  0.1941662438122220
  0.2249729059158624  0.4058013677370367  0.5941986322629634
  0.6075223117648705  0.6969876124555827  0.3030123875444173
  0.9994234336006701  0.0000963710279929  0.9999036289720070
 
  0.00000000E+00  0.00000000E+00  0.00000000E+00
  0.00000000E+00  0.00000000E+00  0.00000000E+00
  0.00000000E+00  0.00000000E+00  0.00000000E+00
  0.00000000E+00  0.00000000E+00  0.00000000E+00
  0.00000000E+00  0.00000000E+00  0.00000000E+00
  0.00000000E+00  0.00000000E+00  0.00000000E+00
  0.00000000E+00  0.00000000E+00  0.00000000E+00
  0.00000000E+00  0.00000000E+00  0.00000000E+00
  0.00000000E+00  0.00000000E+00  0.00000000E+00
  0.00000000E+00  0.00000000E+00  0.00000000E+00
  0.00000000E+00  0.00000000E+00  0.00000000E+00
  0.00000000E+00  0.00000000E+00  0.00000000E+00
  0.00000000E+00  0.00000000E+00  0.00000000E+00
  0.00000000E+00  0.00000000E+00  0.00000000E+00
