#12 (C 2/m) [unique axis c] cell choice 
   9.16649998838950     
     0.0802603785637496    0.0000000000000000   -0.7122394711111644
    -0.4991870384966781    0.1684171047619135    0.0009178401049790
     0.4991870384966781    0.1684171047619135   -0.0009178401049790
   Fe   Ta
     5     2
Direct
  0.9225407265808312  0.6454142853137500  0.3545857146862500
  0.0774592734191688  0.3545857146862500  0.6454142853137500
  0.5000000000000000  0.5000000000000000  0.5000000000000000
  0.3638907896824537  0.7922877855937620  0.2077122144062380
  0.6361092103175464  0.2077122144062380  0.7922877855937620
  0.2188839573866685  0.0752324650523759  0.9247675349476241
  0.7811160426133315  0.9247675349476241  0.0752324650523759
 
  0.00000000E+00  0.00000000E+00  0.00000000E+00
  0.00000000E+00  0.00000000E+00  0.00000000E+00
  0.00000000E+00  0.00000000E+00  0.00000000E+00
  0.00000000E+00  0.00000000E+00  0.00000000E+00
  0.00000000E+00  0.00000000E+00  0.00000000E+00
  0.00000000E+00  0.00000000E+00  0.00000000E+00
  0.00000000E+00  0.00000000E+00  0.00000000E+00
