#166 (R -3 m)                           
   4.20343999710071     
     0.0000053698842370    0.5760275412898460   -1.4388267502984686
     0.4988615773341556   -0.2880179485163493   -1.4388232263015039
    -0.4988518209453049   -0.2880185156852670   -1.4388266512556023
   Fe   Ta
     5     2
Direct
  0.4309705341423395  0.4309862842435251  0.4309705234989765
  0.5690355027038675  0.5690521587989769  0.5690355130720107
  0.8600317463214546  0.8600499088602472  0.8600317257540030
  0.1399680194663545  0.1399848104895502  0.1399680327157506
  0.0000003688004891  0.0000110774884849  0.0000003756442561
  0.2810238159736109  0.2810397298850802  0.2810238068513758
  0.7189737325918791  0.7189885402341295  0.7189737424636229
 
  0.00000000E+00  0.00000000E+00  0.00000000E+00
  0.00000000E+00  0.00000000E+00  0.00000000E+00
  0.00000000E+00  0.00000000E+00  0.00000000E+00
  0.00000000E+00  0.00000000E+00  0.00000000E+00
  0.00000000E+00  0.00000000E+00  0.00000000E+00
  0.00000000E+00  0.00000000E+00  0.00000000E+00
  0.00000000E+00  0.00000000E+00  0.00000000E+00
