#156 (P 3 m 1)                          
   4.72064000053780     
     0.9983969728313509   -0.0000000000000000   -0.0000000000000000
    -0.4991984864156755    0.8646367396917947    0.0000000000000000
    -0.0000000000000000    0.0000000000000000    1.0090523855097779
   Fe   Ta
     5     2
Direct
  0.0000000000000000 -0.0000000000000000  0.5123125735602450
  0.3333399999999997  0.6666600000000003  0.7454522256130051
  0.4981878048174452  0.5018121951825536  0.2587616609959063
  0.4981878048174464  0.9963656096348967  0.2587616609959063
  0.0036343903650973  0.5018121951825536  0.2587616609959063
  0.6666700000000034  0.3333299999999966  0.7418199793652956
 -0.0000000000000000  0.0000000000000000  0.0000202384737323
 
  0.00000000E+00  0.00000000E+00  0.00000000E+00
  0.00000000E+00  0.00000000E+00  0.00000000E+00
  0.00000000E+00  0.00000000E+00  0.00000000E+00
  0.00000000E+00  0.00000000E+00  0.00000000E+00
  0.00000000E+00  0.00000000E+00  0.00000000E+00
  0.00000000E+00  0.00000000E+00  0.00000000E+00
  0.00000000E+00  0.00000000E+00  0.00000000E+00
