#8 (C m) [unique axis c] cell choice 1  
   16.4366100014416     
     0.0486969320916048    0.0000000000000000   -0.2866266057228728
    -0.4992593339270850    0.1434217146043725    0.0003098152167850
     0.4992593339270850    0.1434217146043725   -0.0003098152167850
   Fe   Ta
    10     4
Direct
  0.2156254611953757  0.4000479505930742  0.5999520494069259
  0.1369431649159359  0.5013594442597473  0.0043903296063875
  0.1369431649159359  0.9956096703936125  0.4986405557402526
  0.8228580232572074  0.1429427283940861  0.8570572716059137
  0.3248056978416160  0.1434886137585736  0.8565113862414265
  0.0372045889195808  0.5943547437930619  0.4056452562069382
  0.9029607930199939  0.8469437416074381  0.1530562583925618
  0.5093480675860884  0.7790954622891610  0.7094720436674751
  0.5093480675860884  0.2905279563325249  0.2209045377108390
  0.7705782519058593  0.4443096028221621  0.5556903971778377
  0.6672296446113494  0.2934821339647191  0.7065178660352810
  0.4388540539993283  0.8829844380550990  0.1170155619449011
  0.5907803424515699  0.6863690191681612  0.3136309808318389
  0.9994506777940935  0.0001244945685666  0.9998755054314334
 
  0.00000000E+00  0.00000000E+00  0.00000000E+00
  0.00000000E+00  0.00000000E+00  0.00000000E+00
  0.00000000E+00  0.00000000E+00  0.00000000E+00
  0.00000000E+00  0.00000000E+00  0.00000000E+00
  0.00000000E+00  0.00000000E+00  0.00000000E+00
  0.00000000E+00  0.00000000E+00  0.00000000E+00
  0.00000000E+00  0.00000000E+00  0.00000000E+00
  0.00000000E+00  0.00000000E+00  0.00000000E+00
  0.00000000E+00  0.00000000E+00  0.00000000E+00
  0.00000000E+00  0.00000000E+00  0.00000000E+00
  0.00000000E+00  0.00000000E+00  0.00000000E+00
  0.00000000E+00  0.00000000E+00  0.00000000E+00
  0.00000000E+00  0.00000000E+00  0.00000000E+00
  0.00000000E+00  0.00000000E+00  0.00000000E+00
