#8 (C m) [unique axis c] cell choice 1  
   16.2557200112853     
     0.0489217491179969    0.0000000000000000   -0.2934303818461552
    -0.4994263487616786    0.1454424607632676    0.0001001560426100
     0.4994263487616786    0.1454424607632676   -0.0001001560426100
   Fe   Ta
    10     4
Direct
  0.9647740855718442  0.0981358390755857  0.4044154882969663
  0.9647740855718442  0.5955845117030338  0.9018641609244142
  0.1571767971650036  0.7435923093232731  0.2564076906767269
  0.8766023460392369  0.1909919081476984  0.8090080918523017
  0.5482440856880081  0.0356733516022044  0.9643266483977954
  0.3443330304418140  0.3822088949251695  0.1101693309919895
  0.3443330304418140  0.8898306690080106  0.6177911050748304
  0.6551097740290264  0.7440389347223046  0.2559610652776955
  0.4729682819935082  0.8861262021945726  0.1138737978054274
  0.7518417487756640  0.4455955454589960  0.5544044545410040
  0.8352666122858148  0.6009395177257267  0.3990604822742734
  0.4275534051301484  0.2921065319513343  0.7078934680486659
  0.2990836133455939  0.4777138627105847  0.5222861372894153
  0.0001291035206642  0.9999819214514908  0.0000180785485092
 
  0.00000000E+00  0.00000000E+00  0.00000000E+00
  0.00000000E+00  0.00000000E+00  0.00000000E+00
  0.00000000E+00  0.00000000E+00  0.00000000E+00
  0.00000000E+00  0.00000000E+00  0.00000000E+00
  0.00000000E+00  0.00000000E+00  0.00000000E+00
  0.00000000E+00  0.00000000E+00  0.00000000E+00
  0.00000000E+00  0.00000000E+00  0.00000000E+00
  0.00000000E+00  0.00000000E+00  0.00000000E+00
  0.00000000E+00  0.00000000E+00  0.00000000E+00
  0.00000000E+00  0.00000000E+00  0.00000000E+00
  0.00000000E+00  0.00000000E+00  0.00000000E+00
  0.00000000E+00  0.00000000E+00  0.00000000E+00
  0.00000000E+00  0.00000000E+00  0.00000000E+00
  0.00000000E+00  0.00000000E+00  0.00000000E+00
