#12 (C 2/m) [unique axis c] cell choice 
   14.9920199884684     
     0.3068810130077399    0.0000000000000000   -0.5403888686432494
    -0.4986840441807622    0.1015023906160759    0.0004493833864184
     0.4986840441807622    0.1015023906160759   -0.0004493833864184
   Fe   Ta
    10     4
Direct
  0.3632552152061305  0.0702701658050306  0.9297298341949694
  0.6367447847938695  0.9297298341949694  0.0702701658050306
  0.4390605739364630  0.2924767281567162  0.7075232718432839
  0.5609394260635370  0.7075232718432839  0.2924767281567162
  0.5000000000000000  0.5000000000000000  0.5000000000000000
  0.9237592154508584  0.7805228163407665  0.2194771836592336
  0.0762407845491416  0.2194771836592336  0.7805228163407665
  0.7000522825593228  0.1429132685904519  0.8570867314095479
  0.2999477174406771  0.8570867314095479  0.1429132685904519
  0.0000000000000000  0.0000000000000000 -0.0000000000000000
  0.2235097295001688  0.6475623995513057  0.3524376004486944
  0.7764902704998312  0.3524376004486944  0.6475623995513057
  0.1489751093718064  0.4240168097356989  0.5759831902643011
  0.8510248906281936  0.5759831902643011  0.4240168097356989
 
  0.00000000E+00  0.00000000E+00  0.00000000E+00
  0.00000000E+00  0.00000000E+00  0.00000000E+00
  0.00000000E+00  0.00000000E+00  0.00000000E+00
  0.00000000E+00  0.00000000E+00  0.00000000E+00
  0.00000000E+00  0.00000000E+00  0.00000000E+00
  0.00000000E+00  0.00000000E+00  0.00000000E+00
  0.00000000E+00  0.00000000E+00  0.00000000E+00
  0.00000000E+00  0.00000000E+00  0.00000000E+00
  0.00000000E+00  0.00000000E+00  0.00000000E+00
  0.00000000E+00  0.00000000E+00  0.00000000E+00
  0.00000000E+00  0.00000000E+00  0.00000000E+00
  0.00000000E+00  0.00000000E+00  0.00000000E+00
  0.00000000E+00  0.00000000E+00  0.00000000E+00
  0.00000000E+00  0.00000000E+00  0.00000000E+00
