#36 (C m c 21)                          
   4.72626999717580     
    -0.4989984617445317    1.3101872637394016    0.0000000000000000
    -0.4989984617445317   -1.3101872637394016    0.0000000000000000
     0.0000000000000000    0.0000000000000000    1.3224995456258231
   Fe   Ta
    10     4
Direct
  0.3916001796042356  0.1183227071959691  0.8233350417382246
  0.6083998203957643  0.8816772928040311  0.3233350417382245
  0.8816772928040311  0.6083998203957643  0.8233350417382246
  0.1183227071959691  0.3916001796042356  0.3233350417382245
  0.2487509949364012  0.7512490050635989  0.5661096369327023
  0.7512490050635989  0.2487509949364012  0.0661096369327021
  0.1695053938129987  0.8304946061870013  0.1978266440680785
  0.8304946061870013  0.1695053938129987  0.6978266440680784
  0.5352691821777513  0.4647308178222487  0.1384439591940748
  0.4647308178222487  0.5352691821777513  0.6384439591940749
  0.3267846371151354  0.6732153628848646  0.9418031612186862
  0.6732153628848646  0.3267846371151354  0.4418031612186864
  0.0275324356435332  0.9724675643564668  0.5000865151100040
  0.9724675643564668  0.0275324356435332  0.0000865151100039
 
  0.00000000E+00  0.00000000E+00  0.00000000E+00
  0.00000000E+00  0.00000000E+00  0.00000000E+00
  0.00000000E+00  0.00000000E+00  0.00000000E+00
  0.00000000E+00  0.00000000E+00  0.00000000E+00
  0.00000000E+00  0.00000000E+00  0.00000000E+00
  0.00000000E+00  0.00000000E+00  0.00000000E+00
  0.00000000E+00  0.00000000E+00  0.00000000E+00
  0.00000000E+00  0.00000000E+00  0.00000000E+00
  0.00000000E+00  0.00000000E+00  0.00000000E+00
  0.00000000E+00  0.00000000E+00  0.00000000E+00
  0.00000000E+00  0.00000000E+00  0.00000000E+00
  0.00000000E+00  0.00000000E+00  0.00000000E+00
  0.00000000E+00  0.00000000E+00  0.00000000E+00
  0.00000000E+00  0.00000000E+00  0.00000000E+00
