#2 (P -1)                               
   4.81685999656942     
     0.9980253120695761   -0.0012661413817965    0.0003338569416834
     0.2040767149107553    1.2663891059423713   -0.0008547320635271
     0.0273474933711159    0.5167532718419301    1.2794008858303576
   Fe   Ta
    10     4
Direct
  0.2243317635491235  0.7059280025919896  0.6717975287987382
  0.7756682364508763  0.2940719974080104  0.3282024712012618
  0.2963818252693846  0.2795870557407461  0.8227020322551233
  0.7036181747306155  0.7204129442592541  0.1772979677448768
  0.1766145608208500  0.8477351362990693  0.9948518260594393
  0.8233854391791500  0.1522648637009306  0.0051481739405605
  0.0899127055057759  0.1073476510566034  0.6192682218353710
  0.9100872944942242  0.8926523489433965  0.3807317781646289
  0.5000000000000000  0.5000000000000000  0.0000000000000000
 -0.0000000000000000  0.5000000000000000  0.0000000000000000
  0.6375178480434234  0.9479367516485978  0.7388467239876396
  0.3624821519565767  0.0520632483514022  0.2611532760123603
  0.2553197597611961  0.4980309085873511  0.3696802984458130
  0.7446802402388039  0.5019690914126489  0.6303197015541870
 
  0.00000000E+00  0.00000000E+00  0.00000000E+00
  0.00000000E+00  0.00000000E+00  0.00000000E+00
  0.00000000E+00  0.00000000E+00  0.00000000E+00
  0.00000000E+00  0.00000000E+00  0.00000000E+00
  0.00000000E+00  0.00000000E+00  0.00000000E+00
  0.00000000E+00  0.00000000E+00  0.00000000E+00
  0.00000000E+00  0.00000000E+00  0.00000000E+00
  0.00000000E+00  0.00000000E+00  0.00000000E+00
  0.00000000E+00  0.00000000E+00  0.00000000E+00
  0.00000000E+00  0.00000000E+00  0.00000000E+00
  0.00000000E+00  0.00000000E+00  0.00000000E+00
  0.00000000E+00  0.00000000E+00  0.00000000E+00
  0.00000000E+00  0.00000000E+00  0.00000000E+00
  0.00000000E+00  0.00000000E+00  0.00000000E+00
