#166 (R -3 m)                           
   4.13746000964664     
     0.0000022433356201    0.5761926042792143   -1.0324839685749159
     0.4990035767690390   -0.2881000472401752   -1.0324773101284372
    -0.4989964685377947   -0.2880985322598852   -1.0324839387151872
   Fe   Ta
     4     1
Direct
  0.5954627981761575  0.5954701571272309  0.5954631661296617
  0.4045368737766992  0.4045485149157670  0.4045365060989212
  0.2026615700150458  0.2026761718474432  0.2026619736386479
  0.7973350741087870  0.7973515752077276  0.7973346699022770
  0.0000036839233175  0.0000135809018360  0.0000036842304922
 
  0.00000000E+00  0.00000000E+00  0.00000000E+00
  0.00000000E+00  0.00000000E+00  0.00000000E+00
  0.00000000E+00  0.00000000E+00  0.00000000E+00
  0.00000000E+00  0.00000000E+00  0.00000000E+00
  0.00000000E+00  0.00000000E+00  0.00000000E+00
