#2 (P -1)                               
   4.80566000148976     
     1.0007957568370531   -0.0016860634322092    0.0157534331955682
     0.4873295417391612    0.8702851106982235    0.0167456824221023
     0.0881463422868071    0.4523391701891651    1.2839722372217370
   Fe   Ta
     8     2
Direct
  0.8746079754997634  0.1578109928069240  0.8210201516485575
  0.1253920245002365  0.8421890071930760  0.1789798483514424
  0.3854242631383102  0.1544627014456844  0.8121979789438456
  0.6145757368616898  0.8455372985543158  0.1878020210561542
  0.3879392856350139  0.6691285718170084  0.8165296253975491
  0.6120607143649862  0.3308714281829914  0.1834703746024509
  0.5000000000000000  0.5000000000000000  0.5000000000000000
  0.0000000000000000  0.5000000000000000  0.0000000000000000
  0.1524842979039829  0.2147457274768223  0.4134725287251044
  0.8475157020960171  0.7852542725231778  0.5865274712748956
 
  0.00000000E+00  0.00000000E+00  0.00000000E+00
  0.00000000E+00  0.00000000E+00  0.00000000E+00
  0.00000000E+00  0.00000000E+00  0.00000000E+00
  0.00000000E+00  0.00000000E+00  0.00000000E+00
  0.00000000E+00  0.00000000E+00  0.00000000E+00
  0.00000000E+00  0.00000000E+00  0.00000000E+00
  0.00000000E+00  0.00000000E+00  0.00000000E+00
  0.00000000E+00  0.00000000E+00  0.00000000E+00
  0.00000000E+00  0.00000000E+00  0.00000000E+00
  0.00000000E+00  0.00000000E+00  0.00000000E+00
