#2 (P -1)                               
   4.86613999460594     
     0.9965263454497689   -0.0001171421066023    0.0010139786084632
     0.4563898091027819    0.8894915675022873    0.0004641773738708
     0.2926729094095491    0.3517939725359817    1.2382161966141818
   Fe   Ta
     8     2
Direct
  0.5611574336330000  0.2449584791109875  0.4040515563216270
  0.4388425663669999  0.7550415208890124  0.5959484436783729
  0.3445230021136059  0.2645348552139936  0.7890668202818586
  0.6554769978863940  0.7354651447860063  0.2109331797181414
  0.7433691937424188  0.2423654803041029  0.0022470827903114
  0.2566308062575812  0.7576345196958971  0.9977529172096886
  0.0556200360955430  0.7377595921632684  0.3948483572528640
  0.9443799639044570  0.2622404078367316  0.6051516427471432
  0.1590188590890406  0.2391396828438957  0.2028395840958784
  0.8409811409109593  0.7608603171561044  0.7971604159041217
 
  0.00000000E+00  0.00000000E+00  0.00000000E+00
  0.00000000E+00  0.00000000E+00  0.00000000E+00
  0.00000000E+00  0.00000000E+00  0.00000000E+00
  0.00000000E+00  0.00000000E+00  0.00000000E+00
  0.00000000E+00  0.00000000E+00  0.00000000E+00
  0.00000000E+00  0.00000000E+00  0.00000000E+00
  0.00000000E+00  0.00000000E+00  0.00000000E+00
  0.00000000E+00  0.00000000E+00  0.00000000E+00
  0.00000000E+00  0.00000000E+00  0.00000000E+00
  0.00000000E+00  0.00000000E+00  0.00000000E+00
