#10 (P 2/m) [unique axis c]             
   12.6071099956083     
     0.8806218723744139    0.0000000000000000    0.3847765610151077
     0.1186436992610020    0.0000000000000000   -0.3848854190310800
     0.0000000000000000    0.3240786855776076    0.0000000000000000
   Fe   Ta
    16     4
Direct
  0.0000065605464896  0.0000124059264634  0.5000000000000000
  0.5000042076833490  0.5000082321687208  0.0000000000000000
  0.1994680218294358  0.9008266811662460  0.5000000000000000
  0.8005409215906638  0.0991839310972738  0.5000000000000000
  0.6994672505428582  0.4008327763344934  0.0000000000000000
  0.3005383646907939  0.5991705358761404 -0.0000000000000000
  0.0000075877831064  0.5000124101171975  0.5000000000000000
  0.5000055921431543  0.0000019662165160  0.0000000000000000
  0.3966871064060902  0.7928636107596377  0.5000000000000000
  0.6033229229665288  0.2071399619342696  0.5000000000000000
  0.8966878057167212  0.2928669558647855  0.0000000000000000
  0.1033248679218375  0.7071386947290932  0.0000000000000000
  0.7994002159026176  0.5799965225920298  0.5000000000000000
  0.2006120579443501  0.4200158777480888  0.5000000000000000
  0.2993964597679428  0.0799806112354444 -0.0000000000000000
  0.7006124226887464  0.9200248255239909 -0.0000000000000000
  0.6027673602504616  0.7092908732612716  0.5000000000000000
  0.3972378772260695  0.2907156689469042  0.5000000000000000
  0.1027738615045545  0.2092905304810341  0.0000000000000000
  0.8972385348942319  0.7907269280203805  0.0000000000000000
 
  0.00000000E+00  0.00000000E+00  0.00000000E+00
  0.00000000E+00  0.00000000E+00  0.00000000E+00
  0.00000000E+00  0.00000000E+00  0.00000000E+00
  0.00000000E+00  0.00000000E+00  0.00000000E+00
  0.00000000E+00  0.00000000E+00  0.00000000E+00
  0.00000000E+00  0.00000000E+00  0.00000000E+00
  0.00000000E+00  0.00000000E+00  0.00000000E+00
  0.00000000E+00  0.00000000E+00  0.00000000E+00
  0.00000000E+00  0.00000000E+00  0.00000000E+00
  0.00000000E+00  0.00000000E+00  0.00000000E+00
  0.00000000E+00  0.00000000E+00  0.00000000E+00
  0.00000000E+00  0.00000000E+00  0.00000000E+00
  0.00000000E+00  0.00000000E+00  0.00000000E+00
  0.00000000E+00  0.00000000E+00  0.00000000E+00
  0.00000000E+00  0.00000000E+00  0.00000000E+00
  0.00000000E+00  0.00000000E+00  0.00000000E+00
  0.00000000E+00  0.00000000E+00  0.00000000E+00
  0.00000000E+00  0.00000000E+00  0.00000000E+00
  0.00000000E+00  0.00000000E+00  0.00000000E+00
  0.00000000E+00  0.00000000E+00  0.00000000E+00
