#65-C2/m2/m2/m                          
  0.999999999450192     
     3.9769771293410119    0.0000000000000000    0.0000000000000000
     0.0000000000000000   14.9808814086498359    0.0000000000000000
     0.0000000000000000    0.0000000000000000    3.9717020605353164
   Fe   Ge
    16     4
Direct
  0.0000000000000000  0.8984829714936993  0.5000000000000000
  0.0000000000000000  0.1015170285063007  0.5000000000000000
  0.5000000000000000  0.3984829714936993  0.5000000000000000
  0.5000000000000000  0.6015170285063007  0.5000000000000000
  0.0000000000000000  0.0000000000000000  0.0000000000000000
  0.5000000000000000  0.5000000000000000  0.0000000000000000
  0.5000000000000000  0.0000000000000000  0.5000000000000000
  0.0000000000000000  0.5000000000000000  0.5000000000000000
  0.0000000000000000  0.2035159632972068  0.0000000000000000
  0.0000000000000000  0.7964840367027932  0.0000000000000000
  0.5000000000000000  0.7035159632972068  0.0000000000000000
  0.5000000000000000  0.2964840367027932  0.0000000000000000
  0.0000000000000000  0.7032705128227761  0.5000000000000000
  0.0000000000000000  0.2967294871772239  0.5000000000000000
  0.5000000000000000  0.2032705128227761  0.5000000000000000
  0.5000000000000000  0.7967294871772239  0.5000000000000000
  0.0000000000000000  0.3947527253159393  0.0000000000000000
  0.0000000000000000  0.6052472746840607  0.0000000000000000
  0.5000000000000000  0.8947527253159393  0.0000000000000000
  0.5000000000000000  0.1052472746840607  0.0000000000000000
 
  0.00000000E+00  0.00000000E+00  0.00000000E+00
  0.00000000E+00  0.00000000E+00  0.00000000E+00
  0.00000000E+00  0.00000000E+00  0.00000000E+00
  0.00000000E+00  0.00000000E+00  0.00000000E+00
  0.00000000E+00  0.00000000E+00  0.00000000E+00
  0.00000000E+00  0.00000000E+00  0.00000000E+00
  0.00000000E+00  0.00000000E+00  0.00000000E+00
  0.00000000E+00  0.00000000E+00  0.00000000E+00
  0.00000000E+00  0.00000000E+00  0.00000000E+00
  0.00000000E+00  0.00000000E+00  0.00000000E+00
  0.00000000E+00  0.00000000E+00  0.00000000E+00
  0.00000000E+00  0.00000000E+00  0.00000000E+00
  0.00000000E+00  0.00000000E+00  0.00000000E+00
  0.00000000E+00  0.00000000E+00  0.00000000E+00
  0.00000000E+00  0.00000000E+00  0.00000000E+00
  0.00000000E+00  0.00000000E+00  0.00000000E+00
  0.00000000E+00  0.00000000E+00  0.00000000E+00
  0.00000000E+00  0.00000000E+00  0.00000000E+00
  0.00000000E+00  0.00000000E+00  0.00000000E+00
  0.00000000E+00  0.00000000E+00  0.00000000E+00
