#63-C2/m2/c21/m                         
  0.999999999938030     
     4.0231004186111177    0.0000000000000000    0.0000000000000000
     0.0000000000000000   14.3956138666935267    0.0000000000000000
     0.0000000000000000    0.0000000000000000    4.0303456221426206
   Fe   Ge
    16     4
Direct
  0.0000000000000000  0.2496115253650757  0.2500000000000000
  0.0000000000000000  0.7503884746349243  0.7500000000000000
  0.5000000000000000  0.7496115253650757  0.2500000000000000
  0.5000000000000000  0.2503884746349243  0.7500000000000000
  0.0000000000000000  0.4527887028728301  0.2500000000000000
  0.0000000000000000  0.5472112971271699  0.7500000000000000
  0.5000000000000000  0.9527887028728301  0.2500000000000000
  0.5000000000000000  0.0472112971271699  0.7500000000000000
  0.0000000000000000  0.0472550476229259  0.2500000000000000
  0.0000000000000000  0.9527449523770741  0.7500000000000000
  0.5000000000000000  0.5472550476229259  0.2500000000000000
  0.5000000000000000  0.4527449523770741  0.7500000000000000
  0.0000000000000000  0.6494370728469221  0.2500000000000000
  0.0000000000000000  0.3505629271530779  0.7500000000000000
  0.5000000000000000  0.1494370728469221  0.2500000000000000
  0.5000000000000000  0.8505629271530779  0.7500000000000000
  0.0000000000000000  0.8505633165051734  0.2500000000000000
  0.0000000000000000  0.1494366834948266  0.7500000000000000
  0.5000000000000000  0.3505633165051734  0.2500000000000000
  0.5000000000000000  0.6494366834948266  0.7500000000000000
 
  0.00000000E+00  0.00000000E+00  0.00000000E+00
  0.00000000E+00  0.00000000E+00  0.00000000E+00
  0.00000000E+00  0.00000000E+00  0.00000000E+00
  0.00000000E+00  0.00000000E+00  0.00000000E+00
  0.00000000E+00  0.00000000E+00  0.00000000E+00
  0.00000000E+00  0.00000000E+00  0.00000000E+00
  0.00000000E+00  0.00000000E+00  0.00000000E+00
  0.00000000E+00  0.00000000E+00  0.00000000E+00
  0.00000000E+00  0.00000000E+00  0.00000000E+00
  0.00000000E+00  0.00000000E+00  0.00000000E+00
  0.00000000E+00  0.00000000E+00  0.00000000E+00
  0.00000000E+00  0.00000000E+00  0.00000000E+00
  0.00000000E+00  0.00000000E+00  0.00000000E+00
  0.00000000E+00  0.00000000E+00  0.00000000E+00
  0.00000000E+00  0.00000000E+00  0.00000000E+00
  0.00000000E+00  0.00000000E+00  0.00000000E+00
  0.00000000E+00  0.00000000E+00  0.00000000E+00
  0.00000000E+00  0.00000000E+00  0.00000000E+00
  0.00000000E+00  0.00000000E+00  0.00000000E+00
  0.00000000E+00  0.00000000E+00  0.00000000E+00
