#11-P121/m1                             
   1.00000000061193     
     4.6935808794442684    0.0000000000000000   -0.0012035952553912
     0.0000000000000000    4.0954483756997488    0.0000000000000000
    -1.4778239201236782    0.0000000000000000    6.1896222141214139
   Fe   Ge
     8     2
Direct
  0.9659645109339863  0.2500000000000000  0.1432233556821174
  0.0340354890660137  0.7500000000000000  0.8567766443178826
  0.7527197408227551  0.2500000000000000  0.7474157218091833
  0.2472802591772449  0.7500000000000000  0.2525842781908167
  0.3476212248501795  0.2500000000000000  0.9380282519083210
  0.6523787751498205  0.7500000000000000  0.0619717480916790
  0.1435837100273432  0.2500000000000000  0.5458653747626911
  0.8564162899726568  0.7500000000000000  0.4541346252373089
  0.5588665405697100  0.2500000000000000  0.3294262727524497
  0.4411334594302900  0.7500000000000000  0.6705737272475503
 
  0.00000000E+00  0.00000000E+00  0.00000000E+00
  0.00000000E+00  0.00000000E+00  0.00000000E+00
  0.00000000E+00  0.00000000E+00  0.00000000E+00
  0.00000000E+00  0.00000000E+00  0.00000000E+00
  0.00000000E+00  0.00000000E+00  0.00000000E+00
  0.00000000E+00  0.00000000E+00  0.00000000E+00
  0.00000000E+00  0.00000000E+00  0.00000000E+00
  0.00000000E+00  0.00000000E+00  0.00000000E+00
  0.00000000E+00  0.00000000E+00  0.00000000E+00
  0.00000000E+00  0.00000000E+00  0.00000000E+00
