#166-R-32/m(hexagonalaxes)              
  0.999999999582030     
     3.9975862688176598    0.0000000000000000    0.0000000000000000
    -1.9987931344088299    3.4620112626159405    0.0000000000000000
     0.0000000000000000    0.0000000000000002   25.6812542998209778
   Fe   Ge
    24     6
Direct
  0.0000000000000000  0.0000000000000000  0.1486042028460801
  0.0000000000000000  0.0000000000000000  0.8513957971539199
  0.3333299999999966  0.6666700000000034  0.8152742028460764
  0.3333299999999966  0.6666700000000034  0.5180657971539233
  0.6666700000000034  0.3333299999999966  0.4819342028460767
  0.6666700000000034  0.3333299999999966  0.1847257971539236
  0.0000000000000000  0.0000000000000000  0.9517239116419134
  0.0000000000000000  0.0000000000000000  0.0482760883580866
  0.3333299999999966  0.6666700000000034  0.6183939116419097
  0.3333299999999966  0.6666700000000034  0.7149460883580900
  0.6666700000000034  0.3333299999999966  0.2850539116419100
  0.6666700000000034  0.3333299999999966  0.3816060883580903
  0.0000000000000000  0.0000000000000000  0.6527081879642438
  0.0000000000000000  0.0000000000000000  0.3472918120357562
  0.3333299999999966  0.6666700000000034  0.3193781879642472
  0.3333299999999966  0.6666700000000034  0.0139618120357525
  0.6666700000000034  0.3333299999999966  0.9860381879642475
  0.6666700000000034  0.3333299999999966  0.6806218120357528
  0.0000000000000000  0.0000000000000000  0.7486960867680139
  0.0000000000000000  0.0000000000000000  0.2513039132319861
  0.3333299999999966  0.6666700000000034  0.4153660867680102
  0.3333299999999966  0.6666700000000034  0.9179739132319895
  0.6666700000000034  0.3333299999999966  0.0820260867680105
  0.6666700000000034  0.3333299999999966  0.5846339132319898
  0.0000000000000000  0.0000000000000000  0.5554105865234789
  0.0000000000000000  0.0000000000000000  0.4445894134765211
  0.3333299999999966  0.6666700000000034  0.2220805865234752
  0.3333299999999966  0.6666700000000034  0.1112594134765246
  0.6666700000000034  0.3333299999999966  0.8887405865234754
  0.6666700000000034  0.3333299999999966  0.7779194134765248
 
  0.00000000E+00  0.00000000E+00  0.00000000E+00
  0.00000000E+00  0.00000000E+00  0.00000000E+00
  0.00000000E+00  0.00000000E+00  0.00000000E+00
  0.00000000E+00  0.00000000E+00  0.00000000E+00
  0.00000000E+00  0.00000000E+00  0.00000000E+00
  0.00000000E+00  0.00000000E+00  0.00000000E+00
  0.00000000E+00  0.00000000E+00  0.00000000E+00
  0.00000000E+00  0.00000000E+00  0.00000000E+00
  0.00000000E+00  0.00000000E+00  0.00000000E+00
  0.00000000E+00  0.00000000E+00  0.00000000E+00
  0.00000000E+00  0.00000000E+00  0.00000000E+00
  0.00000000E+00  0.00000000E+00  0.00000000E+00
  0.00000000E+00  0.00000000E+00  0.00000000E+00
  0.00000000E+00  0.00000000E+00  0.00000000E+00
  0.00000000E+00  0.00000000E+00  0.00000000E+00
  0.00000000E+00  0.00000000E+00  0.00000000E+00
  0.00000000E+00  0.00000000E+00  0.00000000E+00
  0.00000000E+00  0.00000000E+00  0.00000000E+00
  0.00000000E+00  0.00000000E+00  0.00000000E+00
  0.00000000E+00  0.00000000E+00  0.00000000E+00
  0.00000000E+00  0.00000000E+00  0.00000000E+00
  0.00000000E+00  0.00000000E+00  0.00000000E+00
  0.00000000E+00  0.00000000E+00  0.00000000E+00
  0.00000000E+00  0.00000000E+00  0.00000000E+00
  0.00000000E+00  0.00000000E+00  0.00000000E+00
  0.00000000E+00  0.00000000E+00  0.00000000E+00
  0.00000000E+00  0.00000000E+00  0.00000000E+00
  0.00000000E+00  0.00000000E+00  0.00000000E+00
  0.00000000E+00  0.00000000E+00  0.00000000E+00
  0.00000000E+00  0.00000000E+00  0.00000000E+00
