#87-I4/m                                
   1.00000000040891     
     6.2684235773073809   -0.0000000049173500    0.0000000000000000
     0.0000000049173500    6.2684235773073809    0.0000000000000000
     0.0000000000000000    0.0000000000000000    3.0123145806846172
   Fe   Ge
     8     2
Direct
  0.1022399702951873  0.3053762823363186  0.0000000000000000
  0.8977600297048127  0.6946237176636814  0.0000000000000000
  0.6946237176636814  0.1022399702951873  0.0000000000000000
  0.3053762823363186  0.8977600297048127  0.0000000000000000
  0.6022399702951873  0.8053762823363186  0.5000000000000000
  0.3977600297048127  0.1946237176636814  0.5000000000000000
  0.1946237176636814  0.6022399702951873  0.5000000000000000
  0.8053762823363186  0.3977600297048127  0.5000000000000000
  0.0000000000000000  0.0000000000000000  0.5000000000000000
  0.5000000000000000  0.5000000000000000  0.0000000000000000
 
  0.00000000E+00  0.00000000E+00  0.00000000E+00
  0.00000000E+00  0.00000000E+00  0.00000000E+00
  0.00000000E+00  0.00000000E+00  0.00000000E+00
  0.00000000E+00  0.00000000E+00  0.00000000E+00
  0.00000000E+00  0.00000000E+00  0.00000000E+00
  0.00000000E+00  0.00000000E+00  0.00000000E+00
  0.00000000E+00  0.00000000E+00  0.00000000E+00
  0.00000000E+00  0.00000000E+00  0.00000000E+00
  0.00000000E+00  0.00000000E+00  0.00000000E+00
  0.00000000E+00  0.00000000E+00  0.00000000E+00
