#166-R-32/m(hexagonalaxes)              
  0.999999999954680     
     4.0211090386044646    0.0000000000000000    0.0000000000000000
    -2.0105545193022323    3.4823825788186862    0.0000000000000000
     0.0000000000000000    0.0000000000000000   25.0335737816220174
   Fe   Ge
    24     6
Direct
  0.0000000000000000  0.0000000000000000  0.5000000000000000
  0.3333299999999966  0.6666700000000034  0.1666700000000034
  0.6666700000000034  0.3333299999999966  0.8333299999999966
  0.0000000000000000  0.0000000000000000  0.4000335569173146
  0.0000000000000000  0.0000000000000000  0.5999664430826854
  0.3333299999999966  0.6666700000000034  0.0667035569173109
  0.3333299999999966  0.6666700000000034  0.2666364430826889
  0.6666700000000034  0.3333299999999966  0.7333635569173111
  0.6666700000000034  0.3333299999999966  0.9332964430826891
  0.0000000000000000  0.0000000000000000  0.0000000000000000
  0.3333299999999966  0.6666700000000034  0.6666700000000034
  0.6666700000000034  0.3333299999999966  0.3333299999999966
  0.0000000000000000  0.0000000000000000  0.9004092815845226
  0.0000000000000000  0.0000000000000000  0.0995907184154774
  0.3333299999999966  0.6666700000000034  0.5670792815845189
  0.3333299999999966  0.6666700000000034  0.7662607184154808
  0.6666700000000034  0.3333299999999966  0.2337392815845192
  0.6666700000000034  0.3333299999999966  0.4329207184154811
  0.0000000000000000  0.0000000000000000  0.3028671386107433
  0.0000000000000000  0.0000000000000000  0.6971328613892567
  0.3333299999999966  0.6666700000000034  0.9695371386107396
  0.3333299999999966  0.6666700000000034  0.3638028613892601
  0.6666700000000034  0.3333299999999966  0.6361971386107399
  0.6666700000000034  0.3333299999999966  0.0304628613892604
  0.0000000000000000  0.0000000000000000  0.7948878591032340
  0.0000000000000000  0.0000000000000000  0.2051121408967660
  0.3333299999999966  0.6666700000000034  0.4615578591032303
  0.3333299999999966  0.6666700000000034  0.8717821408967694
  0.6666700000000034  0.3333299999999966  0.1282178591032306
  0.6666700000000034  0.3333299999999966  0.5384421408967697
 
  0.00000000E+00  0.00000000E+00  0.00000000E+00
  0.00000000E+00  0.00000000E+00  0.00000000E+00
  0.00000000E+00  0.00000000E+00  0.00000000E+00
  0.00000000E+00  0.00000000E+00  0.00000000E+00
  0.00000000E+00  0.00000000E+00  0.00000000E+00
  0.00000000E+00  0.00000000E+00  0.00000000E+00
  0.00000000E+00  0.00000000E+00  0.00000000E+00
  0.00000000E+00  0.00000000E+00  0.00000000E+00
  0.00000000E+00  0.00000000E+00  0.00000000E+00
  0.00000000E+00  0.00000000E+00  0.00000000E+00
  0.00000000E+00  0.00000000E+00  0.00000000E+00
  0.00000000E+00  0.00000000E+00  0.00000000E+00
  0.00000000E+00  0.00000000E+00  0.00000000E+00
  0.00000000E+00  0.00000000E+00  0.00000000E+00
  0.00000000E+00  0.00000000E+00  0.00000000E+00
  0.00000000E+00  0.00000000E+00  0.00000000E+00
  0.00000000E+00  0.00000000E+00  0.00000000E+00
  0.00000000E+00  0.00000000E+00  0.00000000E+00
  0.00000000E+00  0.00000000E+00  0.00000000E+00
  0.00000000E+00  0.00000000E+00  0.00000000E+00
  0.00000000E+00  0.00000000E+00  0.00000000E+00
  0.00000000E+00  0.00000000E+00  0.00000000E+00
  0.00000000E+00  0.00000000E+00  0.00000000E+00
  0.00000000E+00  0.00000000E+00  0.00000000E+00
  0.00000000E+00  0.00000000E+00  0.00000000E+00
  0.00000000E+00  0.00000000E+00  0.00000000E+00
  0.00000000E+00  0.00000000E+00  0.00000000E+00
  0.00000000E+00  0.00000000E+00  0.00000000E+00
  0.00000000E+00  0.00000000E+00  0.00000000E+00
  0.00000000E+00  0.00000000E+00  0.00000000E+00
