#216 (F -4 3 m)                         
   6.64591998771544     
     0.4991915951222595    0.0000000000000000   -0.4991915951222595
    -0.0000000000000000    0.4991915951222595   -0.4991915951222595
     0.4991915951222595    0.4991915951222595    0.0000000000000000
   Co   Fe   Ta
     1     4     1
Direct
  0.0000000000000000 -0.0000000000000000  0.0000000000000000
  0.6251736315765573  0.6251736315765573  0.1244791052703353
  0.1244791052703353  0.6251736315765573  0.6251736315765573
  0.6251736315765573  0.1244791052703353  0.6251736315765573
  0.6251736315765573  0.6251736315765573  0.6251736315765573
  0.2500000000000000  0.2500000000000000  0.2500000000000000
 
  0.00000000E+00  0.00000000E+00  0.00000000E+00
  0.00000000E+00  0.00000000E+00  0.00000000E+00
  0.00000000E+00  0.00000000E+00  0.00000000E+00
  0.00000000E+00  0.00000000E+00  0.00000000E+00
  0.00000000E+00  0.00000000E+00  0.00000000E+00
  0.00000000E+00  0.00000000E+00  0.00000000E+00
