#164 (P -3 m 1)                         
   4.10763000034441     
     0.9981023336934357    0.0000000000000000    0.0000000000000000
    -0.4990511668467179    0.8643655419479184    0.0000000495987390
     0.0000000000000000    0.0000000321580518    1.2400622192673580
   Co   Fe   Ta
     1     4     1
Direct
  0.9999974457806523  0.0000000000000000 -0.0000000000000000
  0.3333305451507044  0.6666682265833422  0.8354409921701251
  0.6666623185673765  0.3333317734166578  0.1645590078298748
  0.3333311202939107  0.6666689330214683  0.3184305281171554
  0.6666621872724494  0.3333310669785317  0.6815694718828446
  0.9999963829349076  0.0000000000000000  0.5000000000000000
 
  0.00000000E+00  0.00000000E+00  0.00000000E+00
  0.00000000E+00  0.00000000E+00  0.00000000E+00
  0.00000000E+00  0.00000000E+00  0.00000000E+00
  0.00000000E+00  0.00000000E+00  0.00000000E+00
  0.00000000E+00  0.00000000E+00  0.00000000E+00
  0.00000000E+00  0.00000000E+00  0.00000000E+00
