#160 (R 3 m)                            
   4.73650999558340     
     0.0000049956768191    0.5715975898779310   -0.8169957245308268
     0.4950194256327993   -0.2857985506143646   -0.8169863331904907
    -0.4950210548811609   -0.2858052591229597   -0.8169969813979937
   Co   Fe   Ta
     1     4     1
Direct
  0.9998771526672444  0.9998754327674907  0.9998751532490527
  0.0004791374854520  0.4979465291395332  0.0004780941340862
  0.4979460943276425  0.0004771085080313  0.0004784848223632
  0.0004787533087265  0.0004761063093314  0.4979462348012568
  0.3767704083366015  0.3767750043100450  0.3767722852492820
  0.6256884538743291  0.6256896689655731  0.6256897477439619
 
  0.00000000E+00  0.00000000E+00  0.00000000E+00
  0.00000000E+00  0.00000000E+00  0.00000000E+00
  0.00000000E+00  0.00000000E+00  0.00000000E+00
  0.00000000E+00  0.00000000E+00  0.00000000E+00
  0.00000000E+00  0.00000000E+00  0.00000000E+00
  0.00000000E+00  0.00000000E+00  0.00000000E+00
