#129-P4/n21/m2/m(originchoice2)         
   1.00000000027390     
     3.3963333767369588    0.0000000000000000    0.0000000000000000
     0.0000000000000000    3.3963333767369588    0.0000000000000000
     0.0000000000000000    0.0000000000000000    6.1229856504205715
   Fe   Si
     4     2
Direct
  0.2500000000000000  0.2500000000000000  0.1494509035438867
  0.7500000000000000  0.7500000000000000  0.8505490964561133
  0.7500000000000000  0.2500000000000000  0.5000000000000000
  0.2500000000000000  0.7500000000000000  0.5000000000000000
  0.2500000000000000  0.2500000000000000  0.7748903651826140
  0.7500000000000000  0.7500000000000000  0.2251096348173860
 
  0.00000000E+00  0.00000000E+00  0.00000000E+00
  0.00000000E+00  0.00000000E+00  0.00000000E+00
  0.00000000E+00  0.00000000E+00  0.00000000E+00
  0.00000000E+00  0.00000000E+00  0.00000000E+00
  0.00000000E+00  0.00000000E+00  0.00000000E+00
  0.00000000E+00  0.00000000E+00  0.00000000E+00
