#2-P-1                                  
   1.00000000076289     
     4.2296354822901359   -0.0136917836946117   -0.0065016192387169
    -2.0798583475234245    3.8328578816695491    0.0213139348471575
    -1.2491820294360567   -1.5875311077141585    4.1846181933035451
   Fe   Si
     4     2
Direct
  0.2884186537431006  0.2359372629988670  0.7533603838368492
  0.7115813462568994  0.7640627370011330  0.2466396161631508
  0.9580289392967813  0.5705436885366311  0.7528734525992107
  0.0419710607032187  0.4294563114633689  0.2471265474007893
  0.3803884091529284  0.1054587429128020  0.2537510742091342
  0.6196115908470716  0.8945412570871980  0.7462489257908658
 
  0.00000000E+00  0.00000000E+00  0.00000000E+00
  0.00000000E+00  0.00000000E+00  0.00000000E+00
  0.00000000E+00  0.00000000E+00  0.00000000E+00
  0.00000000E+00  0.00000000E+00  0.00000000E+00
  0.00000000E+00  0.00000000E+00  0.00000000E+00
  0.00000000E+00  0.00000000E+00  0.00000000E+00
