#164-P-32/m1                            
  0.999999998617117     
     3.9187143688498232    0.0000000000000000    0.0000000000000000
    -1.9593571844249116    3.3937061935990491   -0.0000000000000001
     0.0000000000000000    0.0000000000000000    4.8256678674052873
   Fe   Si
     4     2
Direct
  0.3333299999999966  0.6666700000000034  0.6782296325042552
  0.6666600000000003  0.3333299999999966  0.3217703674957448
  0.0000000000000000  0.0000000000000000  0.0000000000000000
  0.0000000000000000  0.0000000000000000  0.5000000000000000
  0.3333299999999966  0.6666700000000034  0.1803641016827058
  0.6666600000000003  0.3333299999999966  0.8196358983172942
 
  0.00000000E+00  0.00000000E+00  0.00000000E+00
  0.00000000E+00  0.00000000E+00  0.00000000E+00
  0.00000000E+00  0.00000000E+00  0.00000000E+00
  0.00000000E+00  0.00000000E+00  0.00000000E+00
  0.00000000E+00  0.00000000E+00  0.00000000E+00
  0.00000000E+00  0.00000000E+00  0.00000000E+00
