#65-C2/m2/m2/m                          
  0.999999998730393     
    11.7751154241074936    0.0000000000000000    0.0000000000000000
     0.0000000000000000    3.8978965552278808    0.0000000000000000
     0.0000000000000000    0.0000000000000000    2.7950805472603544
   Fe   Si
     8     4
Direct
  0.6712984403311708  0.0000000000000000  0.0000000000000000
  0.3287015596688292  0.0000000000000000  0.0000000000000000
  0.1712984403311708  0.5000000000000000  0.0000000000000000
  0.8287015596688292  0.5000000000000000  0.0000000000000000
  0.0000000000000000  0.0000000000000000  0.0000000000000000
  0.5000000000000000  0.5000000000000000  0.0000000000000000
  0.5000000000000000  0.0000000000000000  0.5000000000000000
  0.0000000000000000  0.5000000000000000  0.5000000000000000
  0.1633396452387075  0.0000000000000000  0.5000000000000000
  0.8366603547612925  0.0000000000000000  0.5000000000000000
  0.6633396452387075  0.5000000000000000  0.5000000000000000
  0.3366603547612925  0.5000000000000000  0.5000000000000000
 
  0.00000000E+00  0.00000000E+00  0.00000000E+00
  0.00000000E+00  0.00000000E+00  0.00000000E+00
  0.00000000E+00  0.00000000E+00  0.00000000E+00
  0.00000000E+00  0.00000000E+00  0.00000000E+00
  0.00000000E+00  0.00000000E+00  0.00000000E+00
  0.00000000E+00  0.00000000E+00  0.00000000E+00
  0.00000000E+00  0.00000000E+00  0.00000000E+00
  0.00000000E+00  0.00000000E+00  0.00000000E+00
  0.00000000E+00  0.00000000E+00  0.00000000E+00
  0.00000000E+00  0.00000000E+00  0.00000000E+00
  0.00000000E+00  0.00000000E+00  0.00000000E+00
  0.00000000E+00  0.00000000E+00  0.00000000E+00
