#59-P21/m21/m2/n(originchoice2)         
   1.00000000182853     
     2.9217665751026147    0.0000000000000000    0.0000000000000000
     0.0000000000000000    3.7971865009416219    0.0000000000000000
     0.0000000000000000    0.0000000000000000    6.2550713595728631
   Fe   Si
     4     2
Direct
  0.2500000000000000  0.2500000000000000  0.8577687156114209
  0.7500000000000000  0.7500000000000000  0.1422312843885791
  0.2500000000000000  0.7500000000000000  0.4818588599968763
  0.7500000000000000  0.2500000000000000  0.5181411400031237
  0.2500000000000000  0.2500000000000000  0.2232206844612250
  0.7500000000000000  0.7500000000000000  0.7767793155387750
 
  0.00000000E+00  0.00000000E+00  0.00000000E+00
  0.00000000E+00  0.00000000E+00  0.00000000E+00
  0.00000000E+00  0.00000000E+00  0.00000000E+00
  0.00000000E+00  0.00000000E+00  0.00000000E+00
  0.00000000E+00  0.00000000E+00  0.00000000E+00
  0.00000000E+00  0.00000000E+00  0.00000000E+00
