#194-P63/m2/m2/c                        
   1.00000000037345     
     3.9921953139851105    0.0000000000000000    0.0000000000000000
    -1.9960976569925553    3.4573425587802995    0.0000000000000000
     0.0000000000000000    0.0000000000000000    4.8579412061780580
   Fe   Si
     4     2
Direct
  0.0000000000000000  0.0000000000000000  0.0000000000000000
  0.0000000000000000  0.0000000000000000  0.5000000000000000
  0.3333299999999966  0.6666700000000034  0.2500000000000000
  0.6666600000000003  0.3333299999999966  0.7500000000000000
  0.3333299999999966  0.6666700000000034  0.7500000000000000
  0.6666600000000003  0.3333299999999966  0.2500000000000000
 
  0.00000000E+00  0.00000000E+00  0.00000000E+00
  0.00000000E+00  0.00000000E+00  0.00000000E+00
  0.00000000E+00  0.00000000E+00  0.00000000E+00
  0.00000000E+00  0.00000000E+00  0.00000000E+00
  0.00000000E+00  0.00000000E+00  0.00000000E+00
  0.00000000E+00  0.00000000E+00  0.00000000E+00
