#12-C12/m1                              
  0.999999999171824     
    12.0114401253671836    0.0000000000000000    0.0523921446566484
     0.0000000000000000    2.7505344920570018    0.0000000000000000
    -1.5781081101216969    0.0000000000000000    5.8648510696430032
   Fe   Si
    12     6
Direct
  0.7219053674233464  0.0000000000000000  0.8269832337764953
  0.2780946325766536  0.0000000000000000  0.1730167662235047
  0.2219053674233464  0.5000000000000000  0.8269832337764953
  0.7780946325766536  0.5000000000000000  0.1730167662235047
  0.1608559234207618  0.0000000000000000  0.4825145572378986
  0.8391440765792382  0.0000000000000000  0.5174854427621014
  0.6608559234207618  0.5000000000000000  0.4825145572378986
  0.3391440765792382  0.5000000000000000  0.5174854427621014
  0.0495148259720324  0.0000000000000000  0.8247555687074666
  0.9504851740279676  0.0000000000000000  0.1752444312925334
  0.5495148259720324  0.5000000000000000  0.8247555687074666
  0.4504851740279676  0.5000000000000000  0.1752444312925334
  0.0000000000000000  0.5000000000000000  0.5000000000000000
  0.5000000000000000  0.0000000000000000  0.5000000000000000
  0.6105635793767945  0.0000000000000000  0.1517417975305122
  0.3894364206232055  0.0000000000000000  0.8482582024694878
  0.1105635793767945  0.5000000000000000  0.1517417975305122
  0.8894364206232055  0.5000000000000000  0.8482582024694878
 
  0.00000000E+00  0.00000000E+00  0.00000000E+00
  0.00000000E+00  0.00000000E+00  0.00000000E+00
  0.00000000E+00  0.00000000E+00  0.00000000E+00
  0.00000000E+00  0.00000000E+00  0.00000000E+00
  0.00000000E+00  0.00000000E+00  0.00000000E+00
  0.00000000E+00  0.00000000E+00  0.00000000E+00
  0.00000000E+00  0.00000000E+00  0.00000000E+00
  0.00000000E+00  0.00000000E+00  0.00000000E+00
  0.00000000E+00  0.00000000E+00  0.00000000E+00
  0.00000000E+00  0.00000000E+00  0.00000000E+00
  0.00000000E+00  0.00000000E+00  0.00000000E+00
  0.00000000E+00  0.00000000E+00  0.00000000E+00
  0.00000000E+00  0.00000000E+00  0.00000000E+00
  0.00000000E+00  0.00000000E+00  0.00000000E+00
  0.00000000E+00  0.00000000E+00  0.00000000E+00
  0.00000000E+00  0.00000000E+00  0.00000000E+00
  0.00000000E+00  0.00000000E+00  0.00000000E+00
  0.00000000E+00  0.00000000E+00  0.00000000E+00
