#8-C1m1                                 
  0.999999999374676     
    11.5689950631779386    0.0000000000000000    0.0001994161272517
     0.0000000000000000    3.8679277762314737    0.0000000000000000
    -1.3593479114149654    0.0000000000000000    4.6157726495964031
   Fe   Si
    12     6
Direct
  0.8047340137433920  0.0000000000000000  0.8895500505240506
  0.3047340137433920  0.5000000000000000  0.8895500505240506
  0.0059270412229679  0.0000000000000000  0.2518810965295160
  0.5059270412229679  0.5000000000000000  0.2518810965295160
  0.5981219623320584  0.0000000000000000  0.6097442098443508
  0.0981219623320584  0.5000000000000000  0.6097442098443508
  0.5872442986143511  0.0000000000000000  0.0912997340710291
  0.0872442986143511  0.5000000000000000  0.0912997340710291
  0.8003981502267621  0.0000000000000000  0.3891905607182764
  0.3003981502267621  0.5000000000000000  0.3891905607182764
  0.1964846043438513  0.0000000000000000  0.0093535344591658
  0.6964846043438513  0.5000000000000000  0.0093535344591658
  0.2144751984108169  0.0000000000000000  0.5289767200379174
  0.7144751984108169  0.5000000000000000  0.5289767200379174
  0.9909349389324191  0.0000000000000000  0.7408207689630188
  0.4909349389324191  0.5000000000000000  0.7408207689630188
  0.3971697921733721  0.0000000000000000  0.2587133248526570
  0.8971697921733721  0.5000000000000000  0.2587133248526570
 
  0.00000000E+00  0.00000000E+00  0.00000000E+00
  0.00000000E+00  0.00000000E+00  0.00000000E+00
  0.00000000E+00  0.00000000E+00  0.00000000E+00
  0.00000000E+00  0.00000000E+00  0.00000000E+00
  0.00000000E+00  0.00000000E+00  0.00000000E+00
  0.00000000E+00  0.00000000E+00  0.00000000E+00
  0.00000000E+00  0.00000000E+00  0.00000000E+00
  0.00000000E+00  0.00000000E+00  0.00000000E+00
  0.00000000E+00  0.00000000E+00  0.00000000E+00
  0.00000000E+00  0.00000000E+00  0.00000000E+00
  0.00000000E+00  0.00000000E+00  0.00000000E+00
  0.00000000E+00  0.00000000E+00  0.00000000E+00
  0.00000000E+00  0.00000000E+00  0.00000000E+00
  0.00000000E+00  0.00000000E+00  0.00000000E+00
  0.00000000E+00  0.00000000E+00  0.00000000E+00
  0.00000000E+00  0.00000000E+00  0.00000000E+00
  0.00000000E+00  0.00000000E+00  0.00000000E+00
  0.00000000E+00  0.00000000E+00  0.00000000E+00
