#15-C12/c1                              
   1.00000000113115     
     4.4113943394348940    0.0000000000000000   -0.0131961082876518
     0.0000000000000000    7.3634695875711635    0.0000000000000000
    -2.0908746756391512    0.0000000000000000    4.2030802768880768
   Fe   Si
     8     4
Direct
  0.0000000000000000  0.4521636799186695  0.2500000000000000
  0.0000000000000000  0.5478363200813305  0.7500000000000000
  0.5000000000000000  0.9521636799186695  0.2500000000000000
  0.5000000000000000  0.0478363200813305  0.7500000000000000
  0.0000000000000000  0.7823434014087738  0.2500000000000000
  0.0000000000000000  0.2176565985912262  0.7500000000000000
  0.5000000000000000  0.2823434014087738  0.2500000000000000
  0.5000000000000000  0.7176565985912262  0.7500000000000000
  0.0000000000000000  0.1185069251330262  0.2500000000000000
  0.0000000000000000  0.8814930748669738  0.7500000000000000
  0.5000000000000000  0.6185069251330262  0.2500000000000000
  0.5000000000000000  0.3814930748669738  0.7500000000000000
 
  0.00000000E+00  0.00000000E+00  0.00000000E+00
  0.00000000E+00  0.00000000E+00  0.00000000E+00
  0.00000000E+00  0.00000000E+00  0.00000000E+00
  0.00000000E+00  0.00000000E+00  0.00000000E+00
  0.00000000E+00  0.00000000E+00  0.00000000E+00
  0.00000000E+00  0.00000000E+00  0.00000000E+00
  0.00000000E+00  0.00000000E+00  0.00000000E+00
  0.00000000E+00  0.00000000E+00  0.00000000E+00
  0.00000000E+00  0.00000000E+00  0.00000000E+00
  0.00000000E+00  0.00000000E+00  0.00000000E+00
  0.00000000E+00  0.00000000E+00  0.00000000E+00
  0.00000000E+00  0.00000000E+00  0.00000000E+00
