#12-C12/m1                              
   1.00000000010530     
     8.5867011894726204    0.0000000000000000    0.0029871511032472
     0.0000000000000000    2.5998674587080086    0.0000000000000000
    -2.0867700720868743    0.0000000000000000    5.7417021141092830
   Fe   Si
     8     4
Direct
  0.1736581588336819  0.0000000000000000  0.6312749917332852
  0.8263418411663181  0.0000000000000000  0.3687250082667148
  0.6736581588336819  0.5000000000000000  0.6312749917332852
  0.3263418411663181  0.5000000000000000  0.3687250082667148
  0.1459467894107007  0.0000000000000000  0.0295406457211698
  0.8540532105892993  0.0000000000000000  0.9704593542788302
  0.6459467894107007  0.5000000000000000  0.0295406457211698
  0.3540532105892993  0.5000000000000000  0.9704593542788302
  0.5345810833456781  0.0000000000000000  0.2881638669832256
  0.4654189166543219  0.0000000000000000  0.7118361330167744
  0.0345810833456781  0.5000000000000000  0.2881638669832256
  0.9654189166543219  0.5000000000000000  0.7118361330167744
 
  0.00000000E+00  0.00000000E+00  0.00000000E+00
  0.00000000E+00  0.00000000E+00  0.00000000E+00
  0.00000000E+00  0.00000000E+00  0.00000000E+00
  0.00000000E+00  0.00000000E+00  0.00000000E+00
  0.00000000E+00  0.00000000E+00  0.00000000E+00
  0.00000000E+00  0.00000000E+00  0.00000000E+00
  0.00000000E+00  0.00000000E+00  0.00000000E+00
  0.00000000E+00  0.00000000E+00  0.00000000E+00
  0.00000000E+00  0.00000000E+00  0.00000000E+00
  0.00000000E+00  0.00000000E+00  0.00000000E+00
  0.00000000E+00  0.00000000E+00  0.00000000E+00
  0.00000000E+00  0.00000000E+00  0.00000000E+00
