#10 (P 2/m) [unique axis c]             
   4.33171000323739     
     0.1772007532846958    0.0000000000000000   -0.9924736568829684
    -1.0008235618690033    0.0000000000000000   -0.0012000401963657
     0.0000000000000000    0.6489064829803295    0.0000000000000000
   Fe   C 
     4     1
Direct
  0.2651009819115189  0.6946565186878244  0.0000000000000000
  0.7348990180884810  0.3053434813121756 -0.0000000000000000
  0.2591346094580082  0.2111354363818151  0.5000000000000000
  0.7408653905419920  0.7888645636181847  0.5000000000000000
 -0.0000000000000000  0.0000000000000000  0.0000000000000000
 
  0.00000000E+00  0.00000000E+00  0.00000000E+00
  0.00000000E+00  0.00000000E+00  0.00000000E+00
  0.00000000E+00  0.00000000E+00  0.00000000E+00
  0.00000000E+00  0.00000000E+00  0.00000000E+00
  0.00000000E+00  0.00000000E+00  0.00000000E+00
