#65 (C m m m)                           
   6.70473001219391     
    -0.5006709482676549    0.4141238660534254    0.0000000000000000
     0.5006709482676549    0.4141238660534254    0.0000000000000000
     0.0000000000000000    0.0000000000000000   -0.4198421179449804
   Fe   C 
     4     1
Direct
  0.7169408301036306  0.2830591698963694 -0.0000000000000000
  0.2830591698963694  0.7169408301036306  0.0000000000000000
  0.7612409537189604  0.7612409537189604  0.5000000000000000
  0.2387590462810395  0.2387590462810395  0.5000000000000000
  0.0000000000000000  0.0000000000000000 -0.0000000000000000
 
  0.00000000E+00  0.00000000E+00  0.00000000E+00
  0.00000000E+00  0.00000000E+00  0.00000000E+00
  0.00000000E+00  0.00000000E+00  0.00000000E+00
  0.00000000E+00  0.00000000E+00  0.00000000E+00
  0.00000000E+00  0.00000000E+00  0.00000000E+00
