#10 (P 2/m) [unique axis c]             
   2.66636000783507     
    -0.3722395183111359    0.0000000000000000    1.8638316589264317
     0.9992466968372204    0.0000000000000000   -0.0012162525027614
     0.0000000000000000    1.4888911718101046    0.0000000000000000
   Fe   C 
     4     1
Direct
  0.0000000000000000 -0.0000000000000000  0.5000000000000000
  0.2679232626215280  0.5892997912652007 -0.0000000000000000
  0.7320767373784721  0.4107002087347992  0.0000000000000000
  0.5000000000000000 -0.0000000000000000  0.5000000000000000
  0.0000000000000000 -0.0000000000000000  0.0000000000000000
 
  0.00000000E+00  0.00000000E+00  0.00000000E+00
  0.00000000E+00  0.00000000E+00  0.00000000E+00
  0.00000000E+00  0.00000000E+00  0.00000000E+00
  0.00000000E+00  0.00000000E+00  0.00000000E+00
  0.00000000E+00  0.00000000E+00  0.00000000E+00
