#139-I4/m2/m2/m                         
  0.999999999751770     
     3.8241925532224390    0.0000000000000000    0.0000000000000000
     0.0000000000000000    3.8241925532224390    0.0000000000000000
     0.0000000000000000    0.0000000000000000    7.1508662877053348
   Fe   C 
     8     2
Direct
  0.0000000000000000  0.5000000000000000  0.0000000000000000
  0.5000000000000000 -0.0000000000000000  0.0000000000000000
  0.5000000000000000 -0.0000000000000000  0.5000000000000000
  0.0000000000000000  0.5000000000000000  0.5000000000000000
 -0.0000000000000000  0.0000000000000000  0.7349095833043536
  0.0000000000000000 -0.0000000000000000  0.2650904166956462
  0.5000000000000000  0.5000000000000000  0.2349095833043537
  0.5000000000000000  0.5000000000000000  0.7650904166956464
  0.0000000000000000 -0.0000000000000000  0.0000000000000000
  0.5000000000000000  0.5000000000000000  0.5000000000000000
 
  0.00000000E+00  0.00000000E+00  0.00000000E+00
  0.00000000E+00  0.00000000E+00  0.00000000E+00
  0.00000000E+00  0.00000000E+00  0.00000000E+00
  0.00000000E+00  0.00000000E+00  0.00000000E+00
  0.00000000E+00  0.00000000E+00  0.00000000E+00
  0.00000000E+00  0.00000000E+00  0.00000000E+00
  0.00000000E+00  0.00000000E+00  0.00000000E+00
  0.00000000E+00  0.00000000E+00  0.00000000E+00
  0.00000000E+00  0.00000000E+00  0.00000000E+00
  0.00000000E+00  0.00000000E+00  0.00000000E+00
