#12 (C 2/m) [unique axis c] cell choice 
   9.13764999227326     
     0.1584335019973977    0.0000000000000000   -0.4411441901814138
    -0.5001649045883639    0.1550705693074474    0.0001383567076099
     0.5001649045883639    0.1550705693074474   -0.0001383567076099
   Fe   C 
     4     1
Direct
  0.4381834867070872  0.1388046098309862  0.8611953901690138
  0.5618165132929128  0.8611953901690138  0.1388046098309862
  0.9105836759515582  0.6258481220944975  0.3741518779055024
  0.0894163240484418  0.3741518779055024  0.6258481220944975
  0.0000000000000000  0.0000000000000000 -0.0000000000000000
 
  0.00000000E+00  0.00000000E+00  0.00000000E+00
  0.00000000E+00  0.00000000E+00  0.00000000E+00
  0.00000000E+00  0.00000000E+00  0.00000000E+00
  0.00000000E+00  0.00000000E+00  0.00000000E+00
  0.00000000E+00  0.00000000E+00  0.00000000E+00
