#47 (P m m m)                           
   3.83967999395983     
     0.0000000000000000   -0.7028533965697983    0.0000000000000000
     1.0044481859203724   -0.0000000000000000    0.0000000000000000
     0.0000000000000000    0.0000000000000000    1.3138330331969579
   Fe   C 
     4     1
Direct
  0.5000000000000000  0.0000000000000000  0.7392583303236342
  0.5000000000000000  0.0000000000000000  0.2607416696763658
  0.0000000000000000  0.5000000000000000  0.0000000000000000
  0.0000000000000000  0.5000000000000000  0.5000000000000000
  0.0000000000000000  0.0000000000000000  0.0000000000000000
 
  0.00000000E+00  0.00000000E+00  0.00000000E+00
  0.00000000E+00  0.00000000E+00  0.00000000E+00
  0.00000000E+00  0.00000000E+00  0.00000000E+00
  0.00000000E+00  0.00000000E+00  0.00000000E+00
  0.00000000E+00  0.00000000E+00  0.00000000E+00
