#38 (A m m 2)                           
   2.78208999370365     
     0.9988956527222609    0.0000000000000000    0.0000000000000000
     0.0000000000000000   -0.4871394449662658   -2.4031547078443998
     0.0000000000000000    0.4871394449662658   -2.4031547078443998
   Fe   C 
     4     1
Direct
  0.5000000000000000  0.4526871821807087  0.4526871821807087
  0.5000000000000000  0.2251454830635165  0.2251454830635165
  0.0000000000000000  0.8347398728416858  0.8347398728416858
  0.0000000000000000  0.6084718045628235  0.6084718045628235
  0.0000000000000000  0.0000456573512750  0.0000456573512750
 
  0.00000000E+00  0.00000000E+00  0.00000000E+00
  0.00000000E+00  0.00000000E+00  0.00000000E+00
  0.00000000E+00  0.00000000E+00  0.00000000E+00
  0.00000000E+00  0.00000000E+00  0.00000000E+00
  0.00000000E+00  0.00000000E+00  0.00000000E+00
