#2 (P -1)                               
   2.66198999334973     
     0.9995699535570571   -0.0006566801742617    0.0017502799665545
    -0.1250392756630634    1.5939749789160793   -0.0003990870094655
    -0.1819978926888965   -0.0833034399643451    1.7397819333648030
   Fe   C 
     4     1
Direct
  0.0989992907281461  0.2592240881194258  0.3647484834702538
  0.9010007092718539  0.7407759118805671  0.6352515165297462
  0.4868142925269730  0.7383796371702043  0.1481046033214876
  0.5131857074730269  0.2616203628297957  0.8518953966785124
  0.0000000000000000  0.0000000000000000  0.0000000000000000
 
  0.00000000E+00  0.00000000E+00  0.00000000E+00
  0.00000000E+00  0.00000000E+00  0.00000000E+00
  0.00000000E+00  0.00000000E+00  0.00000000E+00
  0.00000000E+00  0.00000000E+00  0.00000000E+00
  0.00000000E+00  0.00000000E+00  0.00000000E+00
