#12 (C 2/m) [unique axis c] cell choice 
   8.64733997954980     
     0.0840894550098631    0.0000000000000000   -0.5191225880751368
    -0.4977103359023029    0.1541896719301186   -0.0086776161463285
     0.4977103359023029    0.1541896719301186    0.0086776161463285
   Fe   C 
     4     1
Direct
  0.3813683530460698  0.1283437872330256  0.8716562127669741
  0.6186316469539304  0.8716562127669741  0.1283437872330256
  0.1296380080064300  0.3702248636744466  0.6297751363255535
  0.8703619919935627  0.6297751363255535  0.3702248636744466
 -0.0000000000000000  0.0000000000000000 -0.0000000000000000
 
  0.00000000E+00  0.00000000E+00  0.00000000E+00
  0.00000000E+00  0.00000000E+00  0.00000000E+00
  0.00000000E+00  0.00000000E+00  0.00000000E+00
  0.00000000E+00  0.00000000E+00  0.00000000E+00
  0.00000000E+00  0.00000000E+00  0.00000000E+00
