#8 (C m) [unique axis c] cell choice 1  
   9.32963002754865     
     0.0983267054448483    0.0000000000000000   -0.4230948782250091
    -0.5015151802665376    0.1488612766666547   -0.0002060283142518
     0.5015151802665376    0.1488612766666547    0.0002060283142518
   Fe   C 
     4     1
Direct
  0.3738701921494041  0.1762627156120899  0.8237372843879101
  0.9231466242830280  0.3552675420296154  0.6447324579703775
  0.4415352240528279  0.9162726876728726  0.0837273123271274
  0.8511147038726605  0.6236857205717286  0.3763142794282714
  0.9997132556420851  0.9999213341136937  0.0000786658863063
 
  0.00000000E+00  0.00000000E+00  0.00000000E+00
  0.00000000E+00  0.00000000E+00  0.00000000E+00
  0.00000000E+00  0.00000000E+00  0.00000000E+00
  0.00000000E+00  0.00000000E+00  0.00000000E+00
  0.00000000E+00  0.00000000E+00  0.00000000E+00
