#12-C12/m1                              
  0.999999999110559     
     8.6054942511011845    0.0000000000000000    0.0013451458287844
     0.0000000000000000    4.0469732006750503    0.0000000000000000
    -2.8830804205615612    0.0000000000000000    4.0673915254289836
   Fe   Ge
    10     2
Direct
  0.3384920022401445  0.0000000000000000  0.5116256933133130
  0.6615079977598555  0.0000000000000000  0.4883743066866870
  0.8384920022401445  0.5000000000000000  0.5116256933133130
  0.1615079977598555  0.5000000000000000  0.4883743066866870
  0.0000000000000000  0.0000000000000000  0.5000000000000000
  0.5000000000000000  0.5000000000000000  0.5000000000000000
  0.6711174138232820  0.0000000000000000  0.9980610539144337
  0.3288825861767180  0.0000000000000000  0.0019389460855663
  0.1711174138232820  0.5000000000000000  0.9980610539144337
  0.8288825861767180  0.5000000000000000  0.0019389460855663
  0.0000000000000000  0.0000000000000000  0.0000000000000000
  0.5000000000000000  0.5000000000000000  0.0000000000000000
 
  0.00000000E+00  0.00000000E+00  0.00000000E+00
  0.00000000E+00  0.00000000E+00  0.00000000E+00
  0.00000000E+00  0.00000000E+00  0.00000000E+00
  0.00000000E+00  0.00000000E+00  0.00000000E+00
  0.00000000E+00  0.00000000E+00  0.00000000E+00
  0.00000000E+00  0.00000000E+00  0.00000000E+00
  0.00000000E+00  0.00000000E+00  0.00000000E+00
  0.00000000E+00  0.00000000E+00  0.00000000E+00
  0.00000000E+00  0.00000000E+00  0.00000000E+00
  0.00000000E+00  0.00000000E+00  0.00000000E+00
  0.00000000E+00  0.00000000E+00  0.00000000E+00
  0.00000000E+00  0.00000000E+00  0.00000000E+00
