#11-P121/m1                             
   1.00000000035333     
     4.7502940501522231    0.0000000000000000   -0.0020601249991765
     0.0000000000000000    4.0471721690103459    0.0000000000000000
    -1.2659082257630783    0.0000000000000000    7.3220489773384712
   Fe   Ge
    10     2
Direct
  0.3768881136682793  0.2500000000000000  0.5469290226221020
  0.6231118863317207  0.7500000000000000  0.4530709773778980
  0.3692411097107566  0.2500000000000000  0.8717943537801389
  0.6307588902892434  0.7500000000000000  0.1282056462198611
  0.8803521135353449  0.2500000000000000  0.7054887617890344
  0.1196478864646551  0.7500000000000000  0.2945112382109656
  0.8838580485894738  0.2500000000000000  0.3763490916865280
  0.1161419514105262  0.7500000000000000  0.6236509083134720
  0.8653208544434179  0.2500000000000000  0.0383319848215393
  0.1346791455565821  0.7500000000000000  0.9616680151784607
  0.3734079925272482  0.2500000000000000  0.2092339368951741
  0.6265920074727518  0.7500000000000000  0.7907660631048259
 
  0.00000000E+00  0.00000000E+00  0.00000000E+00
  0.00000000E+00  0.00000000E+00  0.00000000E+00
  0.00000000E+00  0.00000000E+00  0.00000000E+00
  0.00000000E+00  0.00000000E+00  0.00000000E+00
  0.00000000E+00  0.00000000E+00  0.00000000E+00
  0.00000000E+00  0.00000000E+00  0.00000000E+00
  0.00000000E+00  0.00000000E+00  0.00000000E+00
  0.00000000E+00  0.00000000E+00  0.00000000E+00
  0.00000000E+00  0.00000000E+00  0.00000000E+00
  0.00000000E+00  0.00000000E+00  0.00000000E+00
  0.00000000E+00  0.00000000E+00  0.00000000E+00
  0.00000000E+00  0.00000000E+00  0.00000000E+00
