#164-P-32/m1                            
  0.999999998846695     
     4.0430096894813650    0.0000000000000000    0.0000000000000000
    -2.0215048447406825    3.5013490988374971    0.0000000000000000
     0.0000000000000000    0.0000000000000000    9.9354333017634371
   Fe   Ge
    10     2
Direct
  0.3333299999999966  0.6666700000000034  0.2950769717860169
  0.6666600000000003  0.3333299999999966  0.7049230282139831
  0.3333299999999966  0.6666700000000034  0.5377578046885034
  0.6666600000000003  0.3333299999999966  0.4622421953114966
  0.0000000000000000  0.0000000000000000  0.1216422425945893
  0.0000000000000000  0.0000000000000000  0.8783577574054107
  0.3333299999999966  0.6666700000000034  0.0461026061222540
  0.6666600000000003  0.3333299999999966  0.9538973938777460
  0.0000000000000000  0.0000000000000000  0.3750830227574298
  0.0000000000000000  0.0000000000000000  0.6249169772425702
  0.3333299999999966  0.6666700000000034  0.7906238773696899
  0.6666600000000003  0.3333299999999966  0.2093761226303101
 
  0.00000000E+00  0.00000000E+00  0.00000000E+00
  0.00000000E+00  0.00000000E+00  0.00000000E+00
  0.00000000E+00  0.00000000E+00  0.00000000E+00
  0.00000000E+00  0.00000000E+00  0.00000000E+00
  0.00000000E+00  0.00000000E+00  0.00000000E+00
  0.00000000E+00  0.00000000E+00  0.00000000E+00
  0.00000000E+00  0.00000000E+00  0.00000000E+00
  0.00000000E+00  0.00000000E+00  0.00000000E+00
  0.00000000E+00  0.00000000E+00  0.00000000E+00
  0.00000000E+00  0.00000000E+00  0.00000000E+00
  0.00000000E+00  0.00000000E+00  0.00000000E+00
  0.00000000E+00  0.00000000E+00  0.00000000E+00
