#2-P-1                                  
  0.999999999291338     
     4.7332771835006300    0.0001612410276905   -0.0102691072137018
    -0.4447917907755585    4.7119667435770705    0.0065676243074337
    -0.7497851950092960   -1.0333941727813316    6.3361091116638457
   Fe   Ge
    10     2
Direct
  0.1370627226284498  0.6262967856771695  0.3787921615866452
  0.8629372773715502  0.3737032143228305  0.6212078384133548
  0.8799534241957403  0.7104635650717555  0.9565136991098839
  0.1200465758042597  0.2895364349282445  0.0434863008901161
  0.6287253020857975  0.8017049967570102  0.5451651882226258
  0.3712746979142025  0.1982950032429898  0.4548348117773742
  0.3736398094723867  0.8780899184785937  0.1256352431784293
  0.6263601905276133  0.1219100815214063  0.8743647568215707
  0.1220636010082927  0.9705294226304488  0.7080179452322994
  0.8779363989917073  0.0294705773695512  0.2919820547677006
  0.3648544793249258  0.5432399350416262  0.7811437257504821
  0.6351455206750742  0.4567600649583738  0.2188562742495179
 
  0.00000000E+00  0.00000000E+00  0.00000000E+00
  0.00000000E+00  0.00000000E+00  0.00000000E+00
  0.00000000E+00  0.00000000E+00  0.00000000E+00
  0.00000000E+00  0.00000000E+00  0.00000000E+00
  0.00000000E+00  0.00000000E+00  0.00000000E+00
  0.00000000E+00  0.00000000E+00  0.00000000E+00
  0.00000000E+00  0.00000000E+00  0.00000000E+00
  0.00000000E+00  0.00000000E+00  0.00000000E+00
  0.00000000E+00  0.00000000E+00  0.00000000E+00
  0.00000000E+00  0.00000000E+00  0.00000000E+00
  0.00000000E+00  0.00000000E+00  0.00000000E+00
  0.00000000E+00  0.00000000E+00  0.00000000E+00
