#71-I2/m2/m2/m                          
  0.999999999652714     
    12.0607769520885597    0.0000000000000000    0.0000000000000000
     0.0000000000000000    5.7698727004968156    0.0000000000000000
     0.0000000000000000    0.0000000000000000    4.0188800440735655
   Fe   Ge
    20     4
Direct
  0.0000000000000000  0.7434369478002623  0.5000000000000000
  0.0000000000000000  0.2565630521997377  0.5000000000000000
  0.5000000000000000  0.2434369478002623  0.0000000000000000
  0.5000000000000000  0.7565630521997377  0.0000000000000000
  0.8356206773682970  0.7468441355076791  0.0000000000000000
  0.8356206773682970  0.2531558644923209  0.0000000000000000
  0.1643793226317030  0.7468441355076791  0.0000000000000000
  0.1643793226317030  0.2531558644923209  0.0000000000000000
  0.3356206773682970  0.2468441355076791  0.5000000000000000
  0.3356206773682970  0.7531558644923209  0.5000000000000000
  0.6643793226317030  0.2468441355076791  0.5000000000000000
  0.6643793226317030  0.7531558644923209  0.5000000000000000
  0.3328652301866057  0.0000000000000000  0.0000000000000000
  0.6671347698133943  0.0000000000000000  0.0000000000000000
  0.8328652301866057  0.5000000000000000  0.5000000000000000
  0.1671347698133943  0.5000000000000000  0.5000000000000000
  0.5000000000000000  0.0000000000000000  0.5000000000000000
  0.0000000000000000  0.5000000000000000  0.0000000000000000
  0.0000000000000000  0.0000000000000000  0.0000000000000000
  0.5000000000000000  0.5000000000000000  0.5000000000000000
  0.3332901600277651  0.5000000000000000  0.0000000000000000
  0.6667098399722349  0.5000000000000000  0.0000000000000000
  0.8332901600277651  0.0000000000000000  0.5000000000000000
  0.1667098399722349  0.0000000000000000  0.5000000000000000
 
  0.00000000E+00  0.00000000E+00  0.00000000E+00
  0.00000000E+00  0.00000000E+00  0.00000000E+00
  0.00000000E+00  0.00000000E+00  0.00000000E+00
  0.00000000E+00  0.00000000E+00  0.00000000E+00
  0.00000000E+00  0.00000000E+00  0.00000000E+00
  0.00000000E+00  0.00000000E+00  0.00000000E+00
  0.00000000E+00  0.00000000E+00  0.00000000E+00
  0.00000000E+00  0.00000000E+00  0.00000000E+00
  0.00000000E+00  0.00000000E+00  0.00000000E+00
  0.00000000E+00  0.00000000E+00  0.00000000E+00
  0.00000000E+00  0.00000000E+00  0.00000000E+00
  0.00000000E+00  0.00000000E+00  0.00000000E+00
  0.00000000E+00  0.00000000E+00  0.00000000E+00
  0.00000000E+00  0.00000000E+00  0.00000000E+00
  0.00000000E+00  0.00000000E+00  0.00000000E+00
  0.00000000E+00  0.00000000E+00  0.00000000E+00
  0.00000000E+00  0.00000000E+00  0.00000000E+00
  0.00000000E+00  0.00000000E+00  0.00000000E+00
  0.00000000E+00  0.00000000E+00  0.00000000E+00
  0.00000000E+00  0.00000000E+00  0.00000000E+00
  0.00000000E+00  0.00000000E+00  0.00000000E+00
  0.00000000E+00  0.00000000E+00  0.00000000E+00
  0.00000000E+00  0.00000000E+00  0.00000000E+00
  0.00000000E+00  0.00000000E+00  0.00000000E+00
