#216 (F -4 3 m)                         
   5.91471001446784     
     0.4994816319844294   -0.0000000000000000   -0.4994816319844294
     0.0000000000000000    0.4994816319844294   -0.4994816319844294
     0.4994816319844294    0.4994816319844294    0.0000000000000000
   Co   Fe   Ta
     1     2     1
Direct
  0.0000000000000000  0.0000000000000000  0.0000000000000000
  0.5000000000000000  0.5000000000000000  0.5000000000000000
  0.2500000000000000  0.2500000000000000  0.2500000000000000
  0.7500000000000000  0.7500000000000000  0.7500000000000000
 
  0.00000000E+00  0.00000000E+00  0.00000000E+00
  0.00000000E+00  0.00000000E+00  0.00000000E+00
  0.00000000E+00  0.00000000E+00  0.00000000E+00
  0.00000000E+00  0.00000000E+00  0.00000000E+00
