#8 (C m) [unique axis c] cell choice 1  
   10.3593699921851     
     0.1969974795658553    0.0000000000000000   -0.4467328754184188
    -0.4992504858810832    0.4090365572890743    0.0007707211548510
     0.4992504858810832    0.4090365572890743   -0.0007707211548510
   Co   Fe   Ta
     4     8     4
Direct
  0.5094457086853437  0.2236423095402265  0.7763576904597735
  0.2104906287164243  0.6549987125781803  0.8588488796987391
  0.2104906287164243  0.1411511203012609  0.3450012874218197
  0.0018903276406255  0.9999856843181648  0.0000143156818354
  0.2208727662412137  0.8784304846238494  0.6164474697802802
  0.2208727662412137  0.3835525302197200  0.1215695153761506
  0.5003518414900641  0.9942952769635112  0.0057047230364886
  0.9947718250590020  0.4988037993767300  0.5011962006232702
  0.7193512380092427  0.3755005014500299  0.1171013139530170
  0.7193512380092427  0.8828986860469830  0.6244994985499700
  0.4919130889300508  0.5015728002112797  0.4984271997887202
  0.4898852947143731  0.7407272335353769  0.2592727664646231
  0.6966971957502389  0.6204643610564998  0.8655091868842885
  0.6966971957502389  0.1344908131157114  0.3795356389435002
  0.0402506351816408  0.2562583329676987  0.7437416670323014
  0.9936076208646550  0.7469573536947831  0.2530426463052170
 
  0.00000000E+00  0.00000000E+00  0.00000000E+00
  0.00000000E+00  0.00000000E+00  0.00000000E+00
  0.00000000E+00  0.00000000E+00  0.00000000E+00
  0.00000000E+00  0.00000000E+00  0.00000000E+00
  0.00000000E+00  0.00000000E+00  0.00000000E+00
  0.00000000E+00  0.00000000E+00  0.00000000E+00
  0.00000000E+00  0.00000000E+00  0.00000000E+00
  0.00000000E+00  0.00000000E+00  0.00000000E+00
  0.00000000E+00  0.00000000E+00  0.00000000E+00
  0.00000000E+00  0.00000000E+00  0.00000000E+00
  0.00000000E+00  0.00000000E+00  0.00000000E+00
  0.00000000E+00  0.00000000E+00  0.00000000E+00
  0.00000000E+00  0.00000000E+00  0.00000000E+00
  0.00000000E+00  0.00000000E+00  0.00000000E+00
  0.00000000E+00  0.00000000E+00  0.00000000E+00
  0.00000000E+00  0.00000000E+00  0.00000000E+00
