#69 (F m m m)                           
   7.90901999962036     
     0.5014251768098825   -0.4907585225820161    0.0000000000000000
     0.5014251768098825    0.0000000000000000    0.4143376665702266
     0.0000000000000000   -0.4907585225820161    0.4143376665702266
   Co   Fe   Ta
     2     4     2
Direct
  0.2286608370984200  0.7713391629015800  0.7713391629015800
  0.7713391629015800  0.2286608370984200  0.2286608370984200
  0.2511895498427703  0.2511895498427703  0.7488104501572369
  0.7488104501572369  0.7488104501572369  0.2511895498427703
  0.7500000000000000  0.7500000000000000  0.7500000000000000
  0.2500000000000000  0.2500000000000000  0.2500000000000000
  0.2652835455772121  0.7347164544227879  0.2652835455772121
  0.7347164544227879  0.2652835455772121  0.7347164544227879
 
  0.00000000E+00  0.00000000E+00  0.00000000E+00
  0.00000000E+00  0.00000000E+00  0.00000000E+00
  0.00000000E+00  0.00000000E+00  0.00000000E+00
  0.00000000E+00  0.00000000E+00  0.00000000E+00
  0.00000000E+00  0.00000000E+00  0.00000000E+00
  0.00000000E+00  0.00000000E+00  0.00000000E+00
  0.00000000E+00  0.00000000E+00  0.00000000E+00
  0.00000000E+00  0.00000000E+00  0.00000000E+00
