# SQS Fe3Sn Sn disordered on Sn sub     
   1.00000000000000     
     5.4905294356239134   -0.0000000000028178   -0.0000000000000000
    -2.7452647178646949    4.7549379714506772   -0.0000000000000000
    -0.0000000000000000   -0.0000000000000000    8.6189573528079109
   Fe   Sn
    12     4
Direct
  0.8503295697512554  0.7006591395025100  0.1246889738965488
  0.8495658618161034  0.6991317236321990  0.6250277153723005
  0.1496704302487447  0.2993408604974971  0.3753110261034512
  0.1504341381838966  0.3008682763678009  0.8749722846276995
  0.3008682763678009  0.1504341381838966  0.6250277153723005
  0.7006591395025100  0.8503295697512554  0.3753110261034512
  0.6991317236321991  0.8495658618161034  0.8749722846276995
  0.8503295697512547  0.1496704302487454  0.1246889738965488
  0.8495658618161029  0.1504341381838972  0.6250277153723005
  0.1496704302487453  0.8503295697512546  0.3753110261034512
  0.1504341381838971  0.8495658618161028  0.8749722846276995
  0.2993408604974971  0.1496704302487447  0.1246889738965488
  0.3333333329999988  0.6666666659999976  0.6244607393370750
  0.6666666659999976  0.3333333329999988  0.8755392606629250
  0.6666666659999976  0.3333333329999988  0.3739275907644709
  0.3333333329999988  0.6666666659999976  0.1260724092355291
 
  0.00000000E+00  0.00000000E+00  0.00000000E+00
  0.00000000E+00  0.00000000E+00  0.00000000E+00
  0.00000000E+00  0.00000000E+00  0.00000000E+00
  0.00000000E+00  0.00000000E+00  0.00000000E+00
  0.00000000E+00  0.00000000E+00  0.00000000E+00
  0.00000000E+00  0.00000000E+00  0.00000000E+00
  0.00000000E+00  0.00000000E+00  0.00000000E+00
  0.00000000E+00  0.00000000E+00  0.00000000E+00
  0.00000000E+00  0.00000000E+00  0.00000000E+00
  0.00000000E+00  0.00000000E+00  0.00000000E+00
  0.00000000E+00  0.00000000E+00  0.00000000E+00
  0.00000000E+00  0.00000000E+00  0.00000000E+00
  0.00000000E+00  0.00000000E+00  0.00000000E+00
  0.00000000E+00  0.00000000E+00  0.00000000E+00
  0.00000000E+00  0.00000000E+00  0.00000000E+00
  0.00000000E+00  0.00000000E+00  0.00000000E+00
