# Sm Fe11 V (Sm3+, V_sv)                
   8.45000000000000     
     1.0005443763157016    0.0000000000000000    0.0000000000000000
    -0.0000000000000000    1.0051944430082709   -0.0000000000000000
     0.5002721881578508    0.5025972215041354    0.2761281952269249
   Sm   Fe   V 
     1    11     1
Direct
 -0.0000000000000000  0.9951377739134616  0.0000000000000000
  0.9987619750196493  0.9987815404940358  0.5002863658208537
  0.4990483408405029  0.4990679063148893  0.4997136341791464
  0.0012380249803508  0.4990679063148893  0.4997136341791464
  0.5009516591594971  0.9987815404940358  0.5002863658208537
  0.3597226569377190  0.0005797181813525  0.0000000000000000
 -0.0000000000000000  0.6366996329155927  0.0000000000000000
  0.6402773430622811  0.0005797181813525  0.0000000000000000
  0.2730302020844029  0.5002545535222963  0.0000000000000000
  0.5000000000000000  0.7325989675355908  0.0000000000000000
  0.5000000000000000  0.2669209590416925  0.0000000000000000
  0.7269697979155970  0.5002545535222963  0.0000000000000000
 -0.0000000000000000  0.3712752295685073  0.0000000000000000
 
  0.00000000E+00  0.00000000E+00  0.00000000E+00
  0.00000000E+00  0.00000000E+00  0.00000000E+00
  0.00000000E+00  0.00000000E+00  0.00000000E+00
  0.00000000E+00  0.00000000E+00  0.00000000E+00
  0.00000000E+00  0.00000000E+00  0.00000000E+00
  0.00000000E+00  0.00000000E+00  0.00000000E+00
  0.00000000E+00  0.00000000E+00  0.00000000E+00
  0.00000000E+00  0.00000000E+00  0.00000000E+00
  0.00000000E+00  0.00000000E+00  0.00000000E+00
  0.00000000E+00  0.00000000E+00  0.00000000E+00
  0.00000000E+00  0.00000000E+00  0.00000000E+00
  0.00000000E+00  0.00000000E+00  0.00000000E+00
  0.00000000E+00  0.00000000E+00  0.00000000E+00
