# SQS Fe3Sn Sn disordered on Sn sub     
  0.985000000000000     
     5.4630838042683081    0.0000000000006331    0.0000000000000000
    -2.7315419021836518    4.7311693574751725   -0.0000000000000000
    -0.0000000000000000   -0.0000000000000000    8.7057753243358551
   Fe   Sn   Si
    12     3     1
Direct
  0.8464001378469147  0.6928002756938288  0.1247682379648945
  0.8502463706812301  0.7004927413624548  0.6250123987991592
  0.1586749299407269  0.3173498598814639  0.3651079361424112
  0.1585847796307905  0.3171695592615902  0.8849701877426975
  0.2995072586375452  0.1497536293187700  0.6250123987991592
  0.6826501401185435  0.8413250700592730  0.3651079361424112
  0.6828304407384099  0.8414152203692093  0.8849701877426975
  0.8464001378469141  0.1535998621530859  0.1247682379648945
  0.8502463706812319  0.1497536293187680  0.6250123987991592
  0.1586749299407297  0.8413250700592700  0.3651079361424112
  0.1585847796307925  0.8414152203692072  0.8849701877426975
  0.3071997243061782  0.1535998621530852  0.1247682379648945
  0.3333333329999988  0.6666666659999976  0.6253806176660116
  0.6666666659999976  0.3333333329999988  0.8722375733310470
  0.6666666659999976  0.3333333329999988  0.3775715230638526
  0.3333333329999988  0.6666666659999976  0.1252340039916012
 
  0.00000000E+00  0.00000000E+00  0.00000000E+00
  0.00000000E+00  0.00000000E+00  0.00000000E+00
  0.00000000E+00  0.00000000E+00  0.00000000E+00
  0.00000000E+00  0.00000000E+00  0.00000000E+00
  0.00000000E+00  0.00000000E+00  0.00000000E+00
  0.00000000E+00  0.00000000E+00  0.00000000E+00
  0.00000000E+00  0.00000000E+00  0.00000000E+00
  0.00000000E+00  0.00000000E+00  0.00000000E+00
  0.00000000E+00  0.00000000E+00  0.00000000E+00
  0.00000000E+00  0.00000000E+00  0.00000000E+00
  0.00000000E+00  0.00000000E+00  0.00000000E+00
  0.00000000E+00  0.00000000E+00  0.00000000E+00
  0.00000000E+00  0.00000000E+00  0.00000000E+00
  0.00000000E+00  0.00000000E+00  0.00000000E+00
  0.00000000E+00  0.00000000E+00  0.00000000E+00
  0.00000000E+00  0.00000000E+00  0.00000000E+00
