# Sm Fe11 V (Sm3+, V_sv)                
   8.50000000000000     
     0.9993201671026394    0.0000000000000000   -0.0000000000000000
     0.0000000000000000    1.0076179011955000   -0.0000000000000000
     0.4996600835513197    0.5038089505977500    0.2758015244014935
   Sm   Fe   V 
     1    10     2
Direct
 -0.0000000000000000 -0.0000000000000000  0.0000000000000000
 -0.0000000000000000 -0.0000000000000000  0.5000000000000000
  0.5000000000000000  0.5000000000000000  0.5000000000000000
 -0.0000000000000000  0.5000000000000000  0.5000000000000000
  0.5000000000000000 -0.0000000000000000  0.5000000000000000
  0.3600284568653188 -0.0000000000000000  0.0000000000000000
  0.6399715431346812  0.0000000000000000 -0.0000000000000000
  0.2693989019895286  0.5000000000000000  0.0000000000000000
  0.5000000000000000  0.7310512824699456 -0.0000000000000000
  0.5000000000000000  0.2689487175300544  0.0000000000000000
  0.7306010980104714  0.5000000000000000 -0.0000000000000000
 -0.0000000000000000  0.3592134915327574  0.0000000000000000
  0.0000000000000000  0.6407865084672426 -0.0000000000000000
 
  0.00000000E+00  0.00000000E+00  0.00000000E+00
  0.00000000E+00  0.00000000E+00  0.00000000E+00
  0.00000000E+00  0.00000000E+00  0.00000000E+00
  0.00000000E+00  0.00000000E+00  0.00000000E+00
  0.00000000E+00  0.00000000E+00  0.00000000E+00
  0.00000000E+00  0.00000000E+00  0.00000000E+00
  0.00000000E+00  0.00000000E+00  0.00000000E+00
  0.00000000E+00  0.00000000E+00  0.00000000E+00
  0.00000000E+00  0.00000000E+00  0.00000000E+00
  0.00000000E+00  0.00000000E+00  0.00000000E+00
  0.00000000E+00  0.00000000E+00  0.00000000E+00
  0.00000000E+00  0.00000000E+00  0.00000000E+00
  0.00000000E+00  0.00000000E+00  0.00000000E+00
