# SQS Fe3Sn Sn disordered on Sn sub     
   1.00000000000000     
     5.4895313873200617   -0.0000000000050607    0.0000000000000000
    -2.7447656937147022    4.7540736362645433   -0.0000000000000000
     0.0000000000000000   -0.0000000000000000    8.6220916523114717
   Fe   Sn   Te
    12     3     1
Direct
  0.8499126965954976  0.6998253931909951  0.1246873923295846
  0.8496020748860502  0.6992041497720930  0.6249931520976207
  0.1497397031102340  0.2994794062204753  0.3768711914816592
  0.1505725040476033  0.3011450080952138  0.8734479090011754
  0.3007958502279069  0.1503979251139499  0.6249931520976207
  0.7005205937795317  0.8502602968897660  0.3768711914816592
  0.6988549919047862  0.8494274959523967  0.8734479090011754
  0.8499126965954975  0.1500873034045025  0.1246873923295846
  0.8496020748860501  0.1503979251139500  0.6249931520976207
  0.1497397031102342  0.8502602968897659  0.3768711914816592
  0.1505725040476034  0.8494274959523966  0.8734479090011754
  0.3001746068090119  0.1500873034045023  0.1246873923295846
  0.3333333329999988  0.6666666659999976  0.6245023959277989
  0.6666666659999976  0.3333333329999988  0.8740125537376796
  0.6666666659999976  0.3333333329999988  0.3754061105271843
  0.3333333329999988  0.6666666659999976  0.1260800050772169
 
  0.00000000E+00  0.00000000E+00  0.00000000E+00
  0.00000000E+00  0.00000000E+00  0.00000000E+00
  0.00000000E+00  0.00000000E+00  0.00000000E+00
  0.00000000E+00  0.00000000E+00  0.00000000E+00
  0.00000000E+00  0.00000000E+00  0.00000000E+00
  0.00000000E+00  0.00000000E+00  0.00000000E+00
  0.00000000E+00  0.00000000E+00  0.00000000E+00
  0.00000000E+00  0.00000000E+00  0.00000000E+00
  0.00000000E+00  0.00000000E+00  0.00000000E+00
  0.00000000E+00  0.00000000E+00  0.00000000E+00
  0.00000000E+00  0.00000000E+00  0.00000000E+00
  0.00000000E+00  0.00000000E+00  0.00000000E+00
  0.00000000E+00  0.00000000E+00  0.00000000E+00
  0.00000000E+00  0.00000000E+00  0.00000000E+00
  0.00000000E+00  0.00000000E+00  0.00000000E+00
  0.00000000E+00  0.00000000E+00  0.00000000E+00
