# SQS Fe3Sn Sn disordered on Sn sub     
   1.00000000000000     
     5.4976109080611106   -0.0000000000045056    0.0000000000000000
    -2.7488054540848204    4.7610707064768567    0.0000000000000000
     0.0000000000000000    0.0000000000000000    8.5967674960093845
   Fe   Sn   Pb
    12     3     1
Direct
  0.8509121123159636  0.7018242246319273  0.1249360421795387
  0.8491992820290034  0.6983985640579996  0.6250273243230010
  0.1481601848734716  0.2963203697469505  0.3777225028781819
  0.1481817039824196  0.2963634079648462  0.8723504697814006
  0.3016014359420003  0.1508007179709966  0.6250273243230010
  0.7036796302530566  0.8518398151265284  0.3777225028781819
  0.7036365920351537  0.8518182960175804  0.8723504697814006
  0.8509121123159636  0.1490878876840364  0.1249360421795387
  0.8491992820290033  0.1508007179709966  0.6250273243230010
  0.1481601848734717  0.8518398151265284  0.3777225028781819
  0.1481817039824195  0.8518182960175805  0.8723504697814006
  0.2981757753680798  0.1490878876840363  0.1249360421795387
  0.3333333329999988  0.6666666659999976  0.6248131128217013
  0.6666666659999976  0.3333333329999988  0.8757246490724276
  0.6666666659999976  0.3333333329999988  0.3741033535218183
  0.3333333329999988  0.6666666659999976  0.1252498670976855
 
  0.00000000E+00  0.00000000E+00  0.00000000E+00
  0.00000000E+00  0.00000000E+00  0.00000000E+00
  0.00000000E+00  0.00000000E+00  0.00000000E+00
  0.00000000E+00  0.00000000E+00  0.00000000E+00
  0.00000000E+00  0.00000000E+00  0.00000000E+00
  0.00000000E+00  0.00000000E+00  0.00000000E+00
  0.00000000E+00  0.00000000E+00  0.00000000E+00
  0.00000000E+00  0.00000000E+00  0.00000000E+00
  0.00000000E+00  0.00000000E+00  0.00000000E+00
  0.00000000E+00  0.00000000E+00  0.00000000E+00
  0.00000000E+00  0.00000000E+00  0.00000000E+00
  0.00000000E+00  0.00000000E+00  0.00000000E+00
  0.00000000E+00  0.00000000E+00  0.00000000E+00
  0.00000000E+00  0.00000000E+00  0.00000000E+00
  0.00000000E+00  0.00000000E+00  0.00000000E+00
  0.00000000E+00  0.00000000E+00  0.00000000E+00
