#QS Fe3Sn Sn disordered on Sn sub       
  0.997500000000000     
     5.4691851926688653    0.0033736308876437   -0.0025002241061616
    -2.7316703459062905    4.7448455958463613   -0.0011893567652114
    -0.0039094982723949   -0.0044118433888281    8.6679240999546785
   Fe   Mn   Sn   Sb
     8     4     3     1
Direct
  0.8491837728732323  0.6962508239910450  0.1241102287003341
  0.1511028421084293  0.3023311832803739  0.3751070725832692
  0.1494238164128502  0.3009974434064284  0.8747504877194965
  0.6995153047250007  0.8499466441580940  0.8744514749228793
  0.8479910201720540  0.1511753307595550  0.6260619495918094
  0.1518197298085210  0.8485189083737252  0.3723580830896931
  0.1498305384646931  0.8483182314389912  0.8777204619750049
  0.3039242642381982  0.1506750821596313  0.1253504374794172
  0.8463831783233107  0.6960053561638333  0.6257857061773515
  0.3062720271738177  0.1544108348024867  0.6243890352092366
  0.6952115177852120  0.8477731740904613  0.3753763022874105
  0.8472374482356491  0.1529291095680012  0.1239081699821392
  0.3315601276330395  0.6675508804696814  0.6248786607495795
  0.6661500367988903  0.3333875247628610  0.8735016132419872
  0.6689814388890444  0.3345231599333950  0.3765029586014674
  0.3354129361580542  0.6652063124414328  0.1257473576889244
 
  0.00000000E+00  0.00000000E+00  0.00000000E+00
  0.00000000E+00  0.00000000E+00  0.00000000E+00
  0.00000000E+00  0.00000000E+00  0.00000000E+00
  0.00000000E+00  0.00000000E+00  0.00000000E+00
  0.00000000E+00  0.00000000E+00  0.00000000E+00
  0.00000000E+00  0.00000000E+00  0.00000000E+00
  0.00000000E+00  0.00000000E+00  0.00000000E+00
  0.00000000E+00  0.00000000E+00  0.00000000E+00
  0.00000000E+00  0.00000000E+00  0.00000000E+00
  0.00000000E+00  0.00000000E+00  0.00000000E+00
  0.00000000E+00  0.00000000E+00  0.00000000E+00
  0.00000000E+00  0.00000000E+00  0.00000000E+00
  0.00000000E+00  0.00000000E+00  0.00000000E+00
  0.00000000E+00  0.00000000E+00  0.00000000E+00
  0.00000000E+00  0.00000000E+00  0.00000000E+00
  0.00000000E+00  0.00000000E+00  0.00000000E+00
