# SQS Fe3Sn Sn disordered on Sn sub     
  0.985000000000000     
     5.4710593626798687   -0.0000000000011165    0.0000000000000000
    -2.7355296813910215    4.7380763936682939    0.0000000000000000
    -0.0000000000000000    0.0000000000000000    8.6804117499511726
   Fe   Sn   P 
    12     3     1
Direct
  0.8463693010798408  0.6927386021596823  0.1248156162937567
  0.8507068332059456  0.7014136664118867  0.6250261144699606
  0.1589140194207814  0.3178280388415712  0.3651381405325224
  0.1587774386299839  0.3175548772599753  0.8849267837638921
  0.2985863335881134  0.1492931667940545  0.6250261144699606
  0.6821719611584359  0.8410859805792187  0.3651381405325224
  0.6824451227400247  0.8412225613700161  0.8849267837638921
  0.8463693010798415  0.1536306989201585  0.1248156162937567
  0.8507068332059482  0.1492931667940516  0.6250261144699606
  0.1589140194207826  0.8410859805792175  0.3651381405325224
  0.1587774386299843  0.8412225613700157  0.8849267837638921
  0.3072613978403247  0.1536306989201592  0.1248156162937567
  0.3333333329999988  0.6666666659999976  0.6253486376714137
  0.6666666659999976  0.3333333329999988  0.8712605748111503
  0.6666666659999976  0.3333333329999988  0.3785853391199905
  0.3333333329999988  0.6666666659999976  0.1250854832170507
 
  0.00000000E+00  0.00000000E+00  0.00000000E+00
  0.00000000E+00  0.00000000E+00  0.00000000E+00
  0.00000000E+00  0.00000000E+00  0.00000000E+00
  0.00000000E+00  0.00000000E+00  0.00000000E+00
  0.00000000E+00  0.00000000E+00  0.00000000E+00
  0.00000000E+00  0.00000000E+00  0.00000000E+00
  0.00000000E+00  0.00000000E+00  0.00000000E+00
  0.00000000E+00  0.00000000E+00  0.00000000E+00
  0.00000000E+00  0.00000000E+00  0.00000000E+00
  0.00000000E+00  0.00000000E+00  0.00000000E+00
  0.00000000E+00  0.00000000E+00  0.00000000E+00
  0.00000000E+00  0.00000000E+00  0.00000000E+00
  0.00000000E+00  0.00000000E+00  0.00000000E+00
  0.00000000E+00  0.00000000E+00  0.00000000E+00
  0.00000000E+00  0.00000000E+00  0.00000000E+00
  0.00000000E+00  0.00000000E+00  0.00000000E+00
