# SQS Fe3Sn Sn disordered on Sn sub     
  0.997500000000000     
     5.4881368675276976   -0.0000000000045540    0.0000000000000000
    -2.7440684338180690    4.7528659466984626    0.0000000000000000
     0.0000000000000000    0.0000000000000000    8.6264739063768463
   Fe   Sn   In
    12     3     1
Direct
  0.8507023983453459  0.7014047966906917  0.1245670529359452
  0.8491417524446238  0.6982835048892401  0.6252023057388647
  0.1492277271517560  0.2984554543035192  0.3754229423439036
  0.1500683365948255  0.3001366731896583  0.8748225583588694
  0.3017164951107599  0.1508582475553763  0.6252023057388647
  0.7015445456964878  0.8507722728482440  0.3754229423439036
  0.6998633268103418  0.8499316634051745  0.8748225583588694
  0.8507023983453457  0.1492976016546542  0.1245670529359452
  0.8491417524446235  0.1508582475553765  0.6252023057388647
  0.1492277271517561  0.8507722728482437  0.3754229423439036
  0.1500683365948256  0.8499316634051743  0.8748225583588694
  0.2985952033093154  0.1492976016546541  0.1245670529359452
  0.3333333329999988  0.6666666659999976  0.6244330514569395
  0.6666666659999976  0.3333333329999988  0.8767926078884618
  0.6666666659999976  0.3333333329999988  0.3727065787548117
  0.3333333329999988  0.6666666659999976  0.1260231837670383
 
  0.00000000E+00  0.00000000E+00  0.00000000E+00
  0.00000000E+00  0.00000000E+00  0.00000000E+00
  0.00000000E+00  0.00000000E+00  0.00000000E+00
  0.00000000E+00  0.00000000E+00  0.00000000E+00
  0.00000000E+00  0.00000000E+00  0.00000000E+00
  0.00000000E+00  0.00000000E+00  0.00000000E+00
  0.00000000E+00  0.00000000E+00  0.00000000E+00
  0.00000000E+00  0.00000000E+00  0.00000000E+00
  0.00000000E+00  0.00000000E+00  0.00000000E+00
  0.00000000E+00  0.00000000E+00  0.00000000E+00
  0.00000000E+00  0.00000000E+00  0.00000000E+00
  0.00000000E+00  0.00000000E+00  0.00000000E+00
  0.00000000E+00  0.00000000E+00  0.00000000E+00
  0.00000000E+00  0.00000000E+00  0.00000000E+00
  0.00000000E+00  0.00000000E+00  0.00000000E+00
  0.00000000E+00  0.00000000E+00  0.00000000E+00
