# SQS Fe3Sn Sn disordered on Sn sub     
  0.990000000000000     
     5.4738813663294170   -0.0000000000029449   -0.0000000000000000
    -2.7369406832174046    4.7405203205177084    0.0000000000000000
    -0.0000000000000000    0.0000000000000000    8.6714638617452717
   Fe   Sn   As
    12     3     1
Direct
  0.8479861461342968  0.6959722922685934  0.1249632071897776
  0.8498038041002202  0.6996076082004336  0.6249798625571541
  0.1545221316885623  0.3090442633771323  0.3705061607132988
  0.1546248516434495  0.3092497032869063  0.8795092096724909
  0.3003923917995664  0.1501961958997799  0.6249798625571541
  0.6909557366228748  0.8454778683114377  0.3705061607132988
  0.6907502967130937  0.8453751483565505  0.8795092096724909
  0.8479861461342966  0.1520138538657033  0.1249632071897776
  0.8498038041002206  0.1501961958997794  0.6249798625571541
  0.1545221316885628  0.8454778683114371  0.3705061607132988
  0.1546248516434496  0.8453751483565504  0.8795092096724909
  0.3040277077314136  0.1520138538657033  0.1249632071897776
  0.3333333329999988  0.6666666659999976  0.6249513920725396
  0.6666666659999976  0.3333333329999988  0.8736404448334859
  0.6666666659999976  0.3333333329999988  0.3761308034612990
  0.3333333329999988  0.6666666659999976  0.1254020392345108
 
  0.00000000E+00  0.00000000E+00  0.00000000E+00
  0.00000000E+00  0.00000000E+00  0.00000000E+00
  0.00000000E+00  0.00000000E+00  0.00000000E+00
  0.00000000E+00  0.00000000E+00  0.00000000E+00
  0.00000000E+00  0.00000000E+00  0.00000000E+00
  0.00000000E+00  0.00000000E+00  0.00000000E+00
  0.00000000E+00  0.00000000E+00  0.00000000E+00
  0.00000000E+00  0.00000000E+00  0.00000000E+00
  0.00000000E+00  0.00000000E+00  0.00000000E+00
  0.00000000E+00  0.00000000E+00  0.00000000E+00
  0.00000000E+00  0.00000000E+00  0.00000000E+00
  0.00000000E+00  0.00000000E+00  0.00000000E+00
  0.00000000E+00  0.00000000E+00  0.00000000E+00
  0.00000000E+00  0.00000000E+00  0.00000000E+00
  0.00000000E+00  0.00000000E+00  0.00000000E+00
  0.00000000E+00  0.00000000E+00  0.00000000E+00
