# SQS Fe3Sn Sn disordered on Sn sub     
  0.985000000000000     
     5.4557505603991814   -0.0000000000071647   -0.0000000000000000
    -2.7278752802557751    4.7248185819896191   -0.0000000000000000
    -0.0000000000000000   -0.0000000000000000    8.7291944592728328
   Fe   Sn   Ge
    12     3     1
Direct
  0.8465491052734132  0.6930982105468282  0.1247918387526829
  0.8492060205913533  0.6984120411827015  0.6250552102436857
  0.1561713426354269  0.3123426852708582  0.3688532091405047
  0.1559890689273228  0.3119781378546501  0.8811627382999134
  0.3015879588172987  0.1507939794086466  0.6250552102436857
  0.6876573147291488  0.8438286573645732  0.3688532091405047
  0.6880218621453498  0.8440109310726772  0.8811627382999134
  0.8465491052734150  0.1534508947265848  0.1247918387526829
  0.8492060205913550  0.1507939794086448  0.6250552102436857
  0.1561713426354244  0.8438286573645759  0.3688532091405047
  0.1559890689273204  0.8440109310726798  0.8811627382999134
  0.3069017894531790  0.1534508947265869  0.1247918387526829
  0.3333333329999988  0.6666666659999976  0.6251534828197285
  0.6666666659999976  0.3333333329999988  0.8731423706935657
  0.6666666659999976  0.3333333329999988  0.3768327756966056
  0.3333333329999988  0.6666666659999976  0.1252823814797398
 
  0.00000000E+00  0.00000000E+00  0.00000000E+00
  0.00000000E+00  0.00000000E+00  0.00000000E+00
  0.00000000E+00  0.00000000E+00  0.00000000E+00
  0.00000000E+00  0.00000000E+00  0.00000000E+00
  0.00000000E+00  0.00000000E+00  0.00000000E+00
  0.00000000E+00  0.00000000E+00  0.00000000E+00
  0.00000000E+00  0.00000000E+00  0.00000000E+00
  0.00000000E+00  0.00000000E+00  0.00000000E+00
  0.00000000E+00  0.00000000E+00  0.00000000E+00
  0.00000000E+00  0.00000000E+00  0.00000000E+00
  0.00000000E+00  0.00000000E+00  0.00000000E+00
  0.00000000E+00  0.00000000E+00  0.00000000E+00
  0.00000000E+00  0.00000000E+00  0.00000000E+00
  0.00000000E+00  0.00000000E+00  0.00000000E+00
  0.00000000E+00  0.00000000E+00  0.00000000E+00
  0.00000000E+00  0.00000000E+00  0.00000000E+00
