# SQS Fe3Sn Sn disordered on Sn sub     
   1.00000000000000     
     5.4801391489300144   -0.0000000000010571    0.0000000000000000
    -2.7400695745161254    4.7459397192218304   -0.0000000000000000
     0.0000000000000000   -0.0000000000000000    8.6516712426004769
   Fe   Sn   Se
    12     3     1
Direct
  0.8499243735486395  0.6998487470972777  0.1249332265528910
  0.8502243031559805  0.7004486063119535  0.6250530630374853
  0.1513960538858581  0.3027921077717250  0.3737396051927983
  0.1517321987893912  0.3034643975787907  0.8763146987210162
  0.2995513936880463  0.1497756968440194  0.6250530630374853
  0.6972078922282823  0.8486039461141418  0.3737396051927983
  0.6965356024212094  0.8482678012106087  0.8763146987210162
  0.8499243735486385  0.1500756264513616  0.1249332265528910
  0.8502243031559803  0.1497756968440198  0.6250530630374853
  0.1513960538858597  0.8486039461141403  0.3737396051927983
  0.1517321987893923  0.8482678012106075  0.8763146987210162
  0.3001512529027292  0.1500756264513605  0.1249332265528910
  0.3333333329999988  0.6666666659999976  0.6248685589579827
  0.6666666659999976  0.3333333329999988  0.8743130263209703
  0.6666666659999976  0.3333333329999988  0.3751785556240776
  0.3333333329999988  0.6666666659999976  0.1255180785843974
 
  0.00000000E+00  0.00000000E+00  0.00000000E+00
  0.00000000E+00  0.00000000E+00  0.00000000E+00
  0.00000000E+00  0.00000000E+00  0.00000000E+00
  0.00000000E+00  0.00000000E+00  0.00000000E+00
  0.00000000E+00  0.00000000E+00  0.00000000E+00
  0.00000000E+00  0.00000000E+00  0.00000000E+00
  0.00000000E+00  0.00000000E+00  0.00000000E+00
  0.00000000E+00  0.00000000E+00  0.00000000E+00
  0.00000000E+00  0.00000000E+00  0.00000000E+00
  0.00000000E+00  0.00000000E+00  0.00000000E+00
  0.00000000E+00  0.00000000E+00  0.00000000E+00
  0.00000000E+00  0.00000000E+00  0.00000000E+00
  0.00000000E+00  0.00000000E+00  0.00000000E+00
  0.00000000E+00  0.00000000E+00  0.00000000E+00
  0.00000000E+00  0.00000000E+00  0.00000000E+00
  0.00000000E+00  0.00000000E+00  0.00000000E+00
