#QS Fe3Sn Sn disordered on Sn sub       
  0.995000000000000     
     5.4791562757808281    0.0052378254446915    0.0042201831162798
    -2.7350421516887189    4.7559036360861526   -0.0020834083392309
     0.0066198594801315    0.0000482761438656    8.6303546988539015
   Fe   Mn   Sn   Sb
     6     6     3     1
Direct
  0.8485782820623495  0.6981374933703571  0.1248831240092979
  0.8492939633441444  0.6998319218521070  0.6251021737745764
  0.3004271404958202  0.1516070626375129  0.6265620031351730
  0.6973164345090448  0.8502533462470581  0.3747796022405648
  0.1517702191718904  0.8494235357542002  0.8749897755274314
  0.3021133411371870  0.1521297220859009  0.1234861459608479
  0.1493294702254472  0.3019812067728057  0.3745743627078105
  0.1508694385713083  0.3017427437979490  0.8754222104889711
  0.6952953471149921  0.8475569240777669  0.8756162103894842
  0.8505243512756143  0.1511646090132546  0.1259981769059096
  0.8510101483884562  0.1510712427033610  0.6240385323638455
  0.1525914059051185  0.8470758583242591  0.3745355092901893
  0.3345000118291088  0.6662341109596938  0.6249759905741555
  0.6677575827163001  0.3331343339516130  0.8736795826612753
  0.6644363567947232  0.3332813382496853  0.3763663781363982
  0.3341865062584984  0.6653745500024725  0.1249902218340551
 
  0.00000000E+00  0.00000000E+00  0.00000000E+00
  0.00000000E+00  0.00000000E+00  0.00000000E+00
  0.00000000E+00  0.00000000E+00  0.00000000E+00
  0.00000000E+00  0.00000000E+00  0.00000000E+00
  0.00000000E+00  0.00000000E+00  0.00000000E+00
  0.00000000E+00  0.00000000E+00  0.00000000E+00
  0.00000000E+00  0.00000000E+00  0.00000000E+00
  0.00000000E+00  0.00000000E+00  0.00000000E+00
  0.00000000E+00  0.00000000E+00  0.00000000E+00
  0.00000000E+00  0.00000000E+00  0.00000000E+00
  0.00000000E+00  0.00000000E+00  0.00000000E+00
  0.00000000E+00  0.00000000E+00  0.00000000E+00
  0.00000000E+00  0.00000000E+00  0.00000000E+00
  0.00000000E+00  0.00000000E+00  0.00000000E+00
  0.00000000E+00  0.00000000E+00  0.00000000E+00
  0.00000000E+00  0.00000000E+00  0.00000000E+00
