# SQS Fe3SnSb Sb 50% - 2 atoms 13 and 16
   1.00000000000000     
     5.4902141031495928   -0.0000000000044991   -0.0000000000000000
    -2.7451070516289877    4.7546648855166804   -0.0000000000000000
    -0.0000000000000000   -0.0000000000000000    8.6199474472392996
   Fe   Sn   Sb
    12     2     2
Direct
  0.8502250952096339  0.7004501904192675  0.1245870712550217
  0.8494371220344119  0.6988742440688164  0.6250912580048066
  0.1503316777246746  0.3006633554493565  0.3754577872526913
  0.1511743825711268  0.3023487651422607  0.8748535803155104
  0.3011257559311835  0.1505628779655881  0.6250912580048066
  0.6993366445506505  0.8496683222753253  0.3754577872526913
  0.6976512348577392  0.8488256174288733  0.8748535803155104
  0.8502250952096335  0.1497749047903664  0.1245870712550217
  0.8494371220344118  0.1505628779655883  0.6250912580048066
  0.1503316777246748  0.8496683222753252  0.3754577872526913
  0.1511743825711269  0.8488256174288731  0.8748535803155104
  0.2995498095807397  0.1497749047903662  0.1245870712550217
  0.6666666659999976  0.3333333329999988  0.8755619972517634
  0.6666666659999976  0.3333333329999988  0.3739171656873935
  0.3333333329999988  0.6666666659999976  0.1260355815053951
  0.3333333329999988  0.6666666659999976  0.6245161650713577
 
  0.00000000E+00  0.00000000E+00  0.00000000E+00
  0.00000000E+00  0.00000000E+00  0.00000000E+00
  0.00000000E+00  0.00000000E+00  0.00000000E+00
  0.00000000E+00  0.00000000E+00  0.00000000E+00
  0.00000000E+00  0.00000000E+00  0.00000000E+00
  0.00000000E+00  0.00000000E+00  0.00000000E+00
  0.00000000E+00  0.00000000E+00  0.00000000E+00
  0.00000000E+00  0.00000000E+00  0.00000000E+00
  0.00000000E+00  0.00000000E+00  0.00000000E+00
  0.00000000E+00  0.00000000E+00  0.00000000E+00
  0.00000000E+00  0.00000000E+00  0.00000000E+00
  0.00000000E+00  0.00000000E+00  0.00000000E+00
  0.00000000E+00  0.00000000E+00  0.00000000E+00
  0.00000000E+00  0.00000000E+00  0.00000000E+00
  0.00000000E+00  0.00000000E+00  0.00000000E+00
  0.00000000E+00  0.00000000E+00  0.00000000E+00
