# SQS Fe3Sn Sn disordered on Sn sub     
  0.985000000000000     
     5.4614752487770017   -0.0000000000053787   -0.0000000000000000
    -2.7307376244431905    4.7297763075541717    0.0000000000000000
    -0.0000000000000000    0.0000000000000000    8.7109042627027584
   Fe   Sn   Ga
    12     3     1
Direct
  0.8478418809403894  0.6956837618807787  0.1249247961247162
  0.8487150671358160  0.6974301342716257  0.6249819104686378
  0.1547216676313113  0.3094433352626291  0.3696074358207311
  0.1548752739160310  0.3097505478320683  0.8804223528367805
  0.3025698657283747  0.1512849328641842  0.6249819104686378
  0.6905566647373779  0.8452783323686887  0.3696074358207311
  0.6902494521679315  0.8451247260839690  0.8804223528367805
  0.8478418809403898  0.1521581190596102  0.1249247961247162
  0.8487150671358167  0.1512849328641834  0.6249819104686378
  0.1547216676313108  0.8452783323686894  0.3696074358207311
  0.1548752739160303  0.8451247260839699  0.8804223528367805
  0.3043162381192283  0.1521581190596108  0.1249247961247162
  0.3333333329999988  0.6666666659999976  0.6249250903741180
  0.6666666659999976  0.3333333329999988  0.8752185404666980
  0.6666666659999976  0.3333333329999988  0.3745284102628801
  0.3333333329999988  0.6666666659999976  0.1255184731437081
 
  0.00000000E+00  0.00000000E+00  0.00000000E+00
  0.00000000E+00  0.00000000E+00  0.00000000E+00
  0.00000000E+00  0.00000000E+00  0.00000000E+00
  0.00000000E+00  0.00000000E+00  0.00000000E+00
  0.00000000E+00  0.00000000E+00  0.00000000E+00
  0.00000000E+00  0.00000000E+00  0.00000000E+00
  0.00000000E+00  0.00000000E+00  0.00000000E+00
  0.00000000E+00  0.00000000E+00  0.00000000E+00
  0.00000000E+00  0.00000000E+00  0.00000000E+00
  0.00000000E+00  0.00000000E+00  0.00000000E+00
  0.00000000E+00  0.00000000E+00  0.00000000E+00
  0.00000000E+00  0.00000000E+00  0.00000000E+00
  0.00000000E+00  0.00000000E+00  0.00000000E+00
  0.00000000E+00  0.00000000E+00  0.00000000E+00
  0.00000000E+00  0.00000000E+00  0.00000000E+00
  0.00000000E+00  0.00000000E+00  0.00000000E+00
