# SQS Fe3Sn Sn disordered on Sn sub     
   1.00000000000000     
     5.4886239832255272   -0.0000000000034367    0.0000000000000000
    -2.7443119916660210    4.7532878012677617   -0.0000000000000000
     0.0000000000000000   -0.0000000000000000    8.6249427742000240
   Fe   Sn   Sb
    12     3     1
Direct
  0.8500111063883413  0.7000222127766820  0.1247227159062947
  0.8499041609819845  0.6998083219639616  0.6250317736997638
  0.1500633743468833  0.3001267486937739  0.3755147607045589
  0.1507294708947859  0.3014589417895789  0.8746819340191214
  0.3001916780360384  0.1500958390180157  0.6250317736997638
  0.6998732513062331  0.8499366256531167  0.3755147607045589
  0.6985410582104210  0.8492705291052141  0.8746819340191214
  0.8500111063883411  0.1499888936116590  0.1247227159062947
  0.8499041609819843  0.1500958390180157  0.6250317736997638
  0.1500633743468834  0.8499366256531166  0.3755147607045589
  0.1507294708947859  0.8492705291052141  0.8746819340191214
  0.2999777872233248  0.1499888936116588  0.1247227159062947
  0.3333333329999988  0.6666666659999976  0.6247688248415119
  0.6666666659999976  0.3333333329999988  0.8743649102897999
  0.6666666659999976  0.3333333329999988  0.3750212400094248
  0.3333333329999988  0.6666666659999976  0.1259914718700469
 
  0.00000000E+00  0.00000000E+00  0.00000000E+00
  0.00000000E+00  0.00000000E+00  0.00000000E+00
  0.00000000E+00  0.00000000E+00  0.00000000E+00
  0.00000000E+00  0.00000000E+00  0.00000000E+00
  0.00000000E+00  0.00000000E+00  0.00000000E+00
  0.00000000E+00  0.00000000E+00  0.00000000E+00
  0.00000000E+00  0.00000000E+00  0.00000000E+00
  0.00000000E+00  0.00000000E+00  0.00000000E+00
  0.00000000E+00  0.00000000E+00  0.00000000E+00
  0.00000000E+00  0.00000000E+00  0.00000000E+00
  0.00000000E+00  0.00000000E+00  0.00000000E+00
  0.00000000E+00  0.00000000E+00  0.00000000E+00
  0.00000000E+00  0.00000000E+00  0.00000000E+00
  0.00000000E+00  0.00000000E+00  0.00000000E+00
  0.00000000E+00  0.00000000E+00  0.00000000E+00
  0.00000000E+00  0.00000000E+00  0.00000000E+00
