# SQS Fe3Sn Sn disordered on Sn sub     
   1.01000000000000     
     5.5142939556368118   -0.0000000000008925   -0.0000000000000000
    -2.7571469778696955    4.7755186494911701    0.0000000000000000
    -0.0000000000000000   -0.0000000000000000    8.5448285427702153
   Fe   Sn   Bi
    12     3     1
Direct
  0.8526119836110451  0.7052239672220897  0.1247641610444403
  0.8506209062380593  0.7012418124761113  0.6249912572465469
  0.1463879250253463  0.2927758500506993  0.3789597837234411
  0.1467193405729862  0.2934386811459788  0.8712225152980857
  0.2987581875238886  0.1493790937619407  0.6249912572465469
  0.7072241499493077  0.8536120749746536  0.3789597837234411
  0.7065613188540213  0.8532806594270137  0.8712225152980857
  0.8526119836110448  0.1473880163889551  0.1247641610444403
  0.8506209062380591  0.1493790937619408  0.6249912572465469
  0.1463879250253458  0.8536120749746544  0.3789597837234411
  0.1467193405729855  0.8532806594270147  0.8712225152980857
  0.2947760327779174  0.1473880163889551  0.1247641610444403
  0.3333333329999988  0.6666666659999976  0.6246499006495791
  0.6666666659999976  0.3333333329999988  0.8753360626599852
  0.6666666659999976  0.3333333329999988  0.3742420034724692
  0.3333333329999988  0.6666666659999976  0.1259588812804246
 
  0.00000000E+00  0.00000000E+00  0.00000000E+00
  0.00000000E+00  0.00000000E+00  0.00000000E+00
  0.00000000E+00  0.00000000E+00  0.00000000E+00
  0.00000000E+00  0.00000000E+00  0.00000000E+00
  0.00000000E+00  0.00000000E+00  0.00000000E+00
  0.00000000E+00  0.00000000E+00  0.00000000E+00
  0.00000000E+00  0.00000000E+00  0.00000000E+00
  0.00000000E+00  0.00000000E+00  0.00000000E+00
  0.00000000E+00  0.00000000E+00  0.00000000E+00
  0.00000000E+00  0.00000000E+00  0.00000000E+00
  0.00000000E+00  0.00000000E+00  0.00000000E+00
  0.00000000E+00  0.00000000E+00  0.00000000E+00
  0.00000000E+00  0.00000000E+00  0.00000000E+00
  0.00000000E+00  0.00000000E+00  0.00000000E+00
  0.00000000E+00  0.00000000E+00  0.00000000E+00
  0.00000000E+00  0.00000000E+00  0.00000000E+00
