#63 (C m c m)                           
   3.04790000515218     
    -0.4966974436765483    1.8070826460088150    0.0000000000000000
    -0.4966974436765483   -1.8070826460088150   -0.0000000000000000
     0.0000000000000000    0.0000000000000000    1.8832562637413932
   Fe   S 
     6     2
Direct
  0.5044582642260422  0.4955417357739578  0.2500000000000000
  0.4955417357739578  0.5044582642260422  0.7500000000000000
  0.1306522998134567  0.8693477001865433  0.0048539810940107
  0.8693477001865433  0.1306522998134567  0.9951460189059894
  0.1306522998134567  0.8693477001865433  0.4951460189059894
  0.8693477001865433  0.1306522998134567  0.5048539810940106
  0.2902698630492455  0.7097301369507546  0.2500000000000000
  0.7097301369507546  0.2902698630492455  0.7500000000000000
 
  0.00000000E+00  0.00000000E+00  0.00000000E+00
  0.00000000E+00  0.00000000E+00  0.00000000E+00
  0.00000000E+00  0.00000000E+00  0.00000000E+00
  0.00000000E+00  0.00000000E+00  0.00000000E+00
  0.00000000E+00  0.00000000E+00  0.00000000E+00
  0.00000000E+00  0.00000000E+00  0.00000000E+00
  0.00000000E+00  0.00000000E+00  0.00000000E+00
  0.00000000E+00  0.00000000E+00  0.00000000E+00
