#36-Cmc21                               
   1.00000000000706     
     7.0453067471640267    0.0000000000000000    0.0000000000000000
     0.0000000000000000    5.3855841050290794    0.0000000000000000
     0.0000000000000000    0.0000000000000000    4.9974445054205523
   Fe   S 
    12     4
Direct
  0.8002847847430774  0.3337598638506733  0.2952098787423111
  0.1997152152569225  0.6662401361493268  0.7952098787423111
  0.1997152152569225  0.3337598638506733  0.2952098787423111
  0.8002847847430774  0.6662401361493268  0.7952098787423111
  0.3002847847430776  0.8337598638506732  0.2952098787423111
  0.6997152152569226  0.1662401361493268  0.7952098787423111
  0.6997152152569226  0.8337598638506732  0.2952098787423111
  0.3002847847430776  0.1662401361493268  0.7952098787423111
 -0.0000000000000000  0.9701506181137740  0.5095224823605213
 -0.0000000000000000  0.0298493818862260  0.0095224823605215
  0.5000000000000000  0.4701506181137740  0.5095224823605213
  0.5000000000000000  0.5298493818862260  0.0095224823605215
 -0.0000000000000000  0.3330908941252160  0.7041577601548616
 -0.0000000000000000  0.6669091058747839  0.2041577601548617
  0.5000000000000000  0.8330908941252161  0.7041577601548616
  0.5000000000000000  0.1669091058747839  0.2041577601548617
 
  0.00000000E+00  0.00000000E+00  0.00000000E+00
  0.00000000E+00  0.00000000E+00  0.00000000E+00
  0.00000000E+00  0.00000000E+00  0.00000000E+00
  0.00000000E+00  0.00000000E+00  0.00000000E+00
  0.00000000E+00  0.00000000E+00  0.00000000E+00
  0.00000000E+00  0.00000000E+00  0.00000000E+00
  0.00000000E+00  0.00000000E+00  0.00000000E+00
  0.00000000E+00  0.00000000E+00  0.00000000E+00
  0.00000000E+00  0.00000000E+00  0.00000000E+00
  0.00000000E+00  0.00000000E+00  0.00000000E+00
  0.00000000E+00  0.00000000E+00  0.00000000E+00
  0.00000000E+00  0.00000000E+00  0.00000000E+00
  0.00000000E+00  0.00000000E+00  0.00000000E+00
  0.00000000E+00  0.00000000E+00  0.00000000E+00
  0.00000000E+00  0.00000000E+00  0.00000000E+00
  0.00000000E+00  0.00000000E+00  0.00000000E+00
