#164-P-32/m1                            
  0.999999999165518     
     3.9137611917969823   -0.0000000000000000   -0.0000000000000000
    -1.9568805958984912    3.3894166164418471    0.0000000000000001
    -0.0000000000000001    0.0000000000000000    8.8328800969462389
   Fe   S 
     6     2
Direct
  0.3333299999999966  0.6666700000000034  0.9566604543673339
  0.6666600000000003  0.3333299999999966  0.0433395456326659
 -0.0000000000000000  0.0000000000000000  0.1438990936182357
  0.0000000000000000 -0.0000000000000000  0.8561009063817644
  0.3333299999999966  0.6666700000000034  0.2331677973369937
  0.6666600000000003  0.3333299999999966  0.7668322026630063
  0.3333299999999966  0.6666700000000034  0.6988086491466402
  0.6666600000000003  0.3333299999999966  0.3011913508533600
 
  0.00000000E+00  0.00000000E+00  0.00000000E+00
  0.00000000E+00  0.00000000E+00  0.00000000E+00
  0.00000000E+00  0.00000000E+00  0.00000000E+00
  0.00000000E+00  0.00000000E+00  0.00000000E+00
  0.00000000E+00  0.00000000E+00  0.00000000E+00
  0.00000000E+00  0.00000000E+00  0.00000000E+00
  0.00000000E+00  0.00000000E+00  0.00000000E+00
  0.00000000E+00  0.00000000E+00  0.00000000E+00
