#1 (P 1)                                
   5.08669999879672     
     0.9989986396596897    0.0001987949632237    0.0010367796851337
    -0.3485459481699965    1.2549094090066870   -0.0006856815614970
    -0.4901284846937399   -0.2732238008131864    1.3903037462922283
   Fe   Ta
    14     4
Direct
  0.2508527627120659  0.6656177041035127  0.0992707524574894
  0.3634412362290511  0.3249335368632247  0.5441608024454848
  0.9117476318398658  0.6665711340951004  0.7677660193077525
  0.0944848484114747  0.6719141452154241  0.4308428581781125
  0.0481889191027190  0.3408413579899882  0.2241184151572749
  0.8695441051329001  0.3327843447505982  0.5449906569149475
  0.2011271466316339  0.3314187916499683  0.8811293679919190
  0.5442415961106200  0.3265082201142413  0.2159216159323579
  0.7562221853290781  0.6665718944711619  0.1113984898300215
  0.1517240065424038  0.0029730084250458  0.6584756021960610
  0.8317875173027982  0.0113480640943015  0.3300211090037579
  0.6557643006386006  0.0054122915423097  0.6575648608294848
  0.4974074809797286  0.9993254079144376  0.0043984664713020
  0.3317131654890591  0.0016598153172573  0.3352081025328155
  0.7019101388714040  0.3332166516693840  0.8829091437733693
  0.4043153788000682  0.6681027433467326  0.7689787619549645
  0.5972984574193860  0.6678616621091757  0.4322336402980494
  0.9997891224571485  0.9998292263281467  0.9998013347248419
 
  0.00000000E+00  0.00000000E+00  0.00000000E+00
  0.00000000E+00  0.00000000E+00  0.00000000E+00
  0.00000000E+00  0.00000000E+00  0.00000000E+00
  0.00000000E+00  0.00000000E+00  0.00000000E+00
  0.00000000E+00  0.00000000E+00  0.00000000E+00
  0.00000000E+00  0.00000000E+00  0.00000000E+00
  0.00000000E+00  0.00000000E+00  0.00000000E+00
  0.00000000E+00  0.00000000E+00  0.00000000E+00
  0.00000000E+00  0.00000000E+00  0.00000000E+00
  0.00000000E+00  0.00000000E+00  0.00000000E+00
  0.00000000E+00  0.00000000E+00  0.00000000E+00
  0.00000000E+00  0.00000000E+00  0.00000000E+00
  0.00000000E+00  0.00000000E+00  0.00000000E+00
  0.00000000E+00  0.00000000E+00  0.00000000E+00
  0.00000000E+00  0.00000000E+00  0.00000000E+00
  0.00000000E+00  0.00000000E+00  0.00000000E+00
  0.00000000E+00  0.00000000E+00  0.00000000E+00
  0.00000000E+00  0.00000000E+00  0.00000000E+00
