#6 (P m) [unique axis c]                
   7.15515000432949     
     0.0134946132094169    0.0000000000000000   -1.0763589407527441
    -1.0013238853318958    0.0000000000000000   -0.0008819589254996
     0.0000000000000000    0.5817103049801151    0.0000000000000000
   Fe   Ta
    14     4
Direct
  0.8791401913795922  0.8391942178546401  0.5000000000000000
  0.4431379128596349  0.1602864102719929  0.5000000000000000
  0.5557281001664255  0.8397290386269534  0.5000000000000000
  0.7757772150415748  0.1646238753826718  0.5000000000000000
  0.4506216672404145  0.6800069075409438  0.0000000000000000
  0.8916445934479652  0.3328591086023138  0.0000000000000000
  0.7756051060875141  0.6721057358790876  0.0000000000000000
  0.3403092917267383  0.0020267763608151  0.0000000000000000
  0.2209137798486397  0.8458257568863350  0.5000000000000000
  0.1179877841884295  0.1715788534892425  0.5000000000000000
  0.1210265387034710  0.6696621075491613  0.0000000000000000
  0.2190436445413176  0.3315780121474600  0.0000000000000000
  0.6662490172385072  0.5102952634036463  0.5000000000000000
  0.6654217886367506  0.9920918545369839  0.0000000000000000
  0.9859004146995377  0.5057604523200555  0.5000000000000000
  0.3416699502455091  0.5096738199644396  0.5000000000000000
  0.5666597724180219  0.3282099988544934  0.0000000000000000
 -0.0000467684700435  0.0002818103287585  0.0000000000000000
 
  0.00000000E+00  0.00000000E+00  0.00000000E+00
  0.00000000E+00  0.00000000E+00  0.00000000E+00
  0.00000000E+00  0.00000000E+00  0.00000000E+00
  0.00000000E+00  0.00000000E+00  0.00000000E+00
  0.00000000E+00  0.00000000E+00  0.00000000E+00
  0.00000000E+00  0.00000000E+00  0.00000000E+00
  0.00000000E+00  0.00000000E+00  0.00000000E+00
  0.00000000E+00  0.00000000E+00  0.00000000E+00
  0.00000000E+00  0.00000000E+00  0.00000000E+00
  0.00000000E+00  0.00000000E+00  0.00000000E+00
  0.00000000E+00  0.00000000E+00  0.00000000E+00
  0.00000000E+00  0.00000000E+00  0.00000000E+00
  0.00000000E+00  0.00000000E+00  0.00000000E+00
  0.00000000E+00  0.00000000E+00  0.00000000E+00
  0.00000000E+00  0.00000000E+00  0.00000000E+00
  0.00000000E+00  0.00000000E+00  0.00000000E+00
  0.00000000E+00  0.00000000E+00  0.00000000E+00
  0.00000000E+00  0.00000000E+00  0.00000000E+00
