#2 (P -1)                               
   5.08126000101189     
     0.9998454826721325    0.0008507310668008   -0.0002843309650904
    -0.1434575124382270    1.2576317302440614    0.0009002641781567
    -0.4989827167797303   -0.2778510288108219    1.3933004420503603
   Fe   Ta
    14     4
Direct
  0.2655121455624529  0.5096953230601190  0.1720875631809779
  0.7344878544375473  0.4903046769398811  0.8279124368190223
  0.0877647390228399  0.8420584829121132  0.7186116159744125
  0.9122352609771602  0.1579415170878870  0.2813883840255876
  0.2451956992596820  0.4972829667028137  0.4931979783249057
  0.7548043007403180  0.5027170332971863  0.5068020216750945
  0.0740789094209029  0.8286414071900285  0.0503004603347391
  0.9259210905790971  0.1713585928099714  0.9496995396652609
  0.0955060945258238  0.8400039570929070  0.3934955522881198
  0.9044939054741762  0.1599960429070930  0.6065044477118802
  0.5941252408498345  0.8273760221226849  0.3860268825675630
  0.4058747591501656  0.1726239778773151  0.6139731174324371
  0.4165523031479740  0.1608848699597833  0.9419591965078770
  0.5834476968520258  0.8391151300402167  0.0580408034921228
  0.2321730260461073  0.4978239904012239  0.8301164925035308
  0.7678269739538927  0.5021760095987762  0.1698835074964691
  0.4099469707525649  0.1625717386088414  0.2792576046571774
  0.5900530292474352  0.8374282613911587  0.7207423953428226
 
  0.00000000E+00  0.00000000E+00  0.00000000E+00
  0.00000000E+00  0.00000000E+00  0.00000000E+00
  0.00000000E+00  0.00000000E+00  0.00000000E+00
  0.00000000E+00  0.00000000E+00  0.00000000E+00
  0.00000000E+00  0.00000000E+00  0.00000000E+00
  0.00000000E+00  0.00000000E+00  0.00000000E+00
  0.00000000E+00  0.00000000E+00  0.00000000E+00
  0.00000000E+00  0.00000000E+00  0.00000000E+00
  0.00000000E+00  0.00000000E+00  0.00000000E+00
  0.00000000E+00  0.00000000E+00  0.00000000E+00
  0.00000000E+00  0.00000000E+00  0.00000000E+00
  0.00000000E+00  0.00000000E+00  0.00000000E+00
  0.00000000E+00  0.00000000E+00  0.00000000E+00
  0.00000000E+00  0.00000000E+00  0.00000000E+00
  0.00000000E+00  0.00000000E+00  0.00000000E+00
  0.00000000E+00  0.00000000E+00  0.00000000E+00
  0.00000000E+00  0.00000000E+00  0.00000000E+00
  0.00000000E+00  0.00000000E+00  0.00000000E+00
