#1 (P 1)                                
   5.08895000225396     
     0.9999942118764676   -0.0004496983275500    0.0000337204271071
     0.3507666795370497    1.2523997707881511   -0.0005375869244969
     0.0167596763582563    0.2770968841433714    1.3810176252074422
   Fe   Ta
    14     4
Direct
  0.6191731671554414  0.6644293879457774  0.5474037207307089
  0.0555276389796592  0.3372091572004737  0.7734963189652337
  0.1885230143573859 -0.0004090686091053  0.3258125209159629
  0.2212019721436077  0.3354954437595496  0.1000819078667963
  0.4472092960002290  0.6670092150421646  0.2115330282591792
  0.3870570301628512  0.3334349958566215  0.4247999132748435
  0.7824889668841346  0.6640705303723454  0.8838423982491346
  0.2874507817556606  0.6588782871730702  0.8871249660183161
  0.8519407307705816 -0.0010183394904434  0.6623893187100502
  0.6738971286419700 -0.0010198226100311  0.3242200481616985
  0.5033121298665182  0.0017024403570006  0.0021456738474437
  0.7095755688647098  0.3418069801001644  0.0942830874214761
  0.5575364334400306  0.3352117861645681  0.7705832239673283
  0.9415114935873634  0.6628261365327488  0.2094580303758507
  0.1184268840944448  0.6663495777258091  0.5457919179057629
  0.3620096168327996  0.0003455753318198  0.6636116202839782
  0.8813798757256656  0.3301218092870431  0.4293665047256749
 -0.0001117292630599  0.0002159078604220  0.0005358003205660
 
  0.00000000E+00  0.00000000E+00  0.00000000E+00
  0.00000000E+00  0.00000000E+00  0.00000000E+00
  0.00000000E+00  0.00000000E+00  0.00000000E+00
  0.00000000E+00  0.00000000E+00  0.00000000E+00
  0.00000000E+00  0.00000000E+00  0.00000000E+00
  0.00000000E+00  0.00000000E+00  0.00000000E+00
  0.00000000E+00  0.00000000E+00  0.00000000E+00
  0.00000000E+00  0.00000000E+00  0.00000000E+00
  0.00000000E+00  0.00000000E+00  0.00000000E+00
  0.00000000E+00  0.00000000E+00  0.00000000E+00
  0.00000000E+00  0.00000000E+00  0.00000000E+00
  0.00000000E+00  0.00000000E+00  0.00000000E+00
  0.00000000E+00  0.00000000E+00  0.00000000E+00
  0.00000000E+00  0.00000000E+00  0.00000000E+00
  0.00000000E+00  0.00000000E+00  0.00000000E+00
  0.00000000E+00  0.00000000E+00  0.00000000E+00
  0.00000000E+00  0.00000000E+00  0.00000000E+00
  0.00000000E+00  0.00000000E+00  0.00000000E+00
