#2 (P -1)                               
   5.07905999805434     
     1.0002001679883601    0.0004723349073198    0.0009212208585611
     0.3573143656859185    1.2514096717916476    0.0006220666328657
     0.4938453859522944    0.2856950498638212    1.3989538467452789
   Fe   Ta
    14     4
Direct
  0.0814085767462937  0.1551264704999339  0.7238507481804632
  0.9186087388585145  0.8448760720078611  0.2760269753041063
  0.2488990315568576  0.4933132831325595  0.5068782182280918
  0.7511108382321335  0.5066814969513401  0.4930286312190109
  0.9143430811350994  0.8326825229854897  0.9446145065025905
  0.0856507070842375  0.1673403402147996  0.0552632118396178
  0.7402327954074375  0.4919502666502975  0.1709080579151028
  0.2597466291330124  0.5080376159707067  0.8290037049380549
  0.5973295154342877  0.1665934886590084  0.0531057884344697
  0.4026553025877031  0.8334124394572766  0.9467930502307377
  0.5778692286162452  0.1663881418500233  0.3844913793079253
  0.4221530754480648  0.8336073505455781  0.6154040699684901
  0.0662220022629594  0.1666303907734585  0.3964869507793459
  0.9337825137870068  0.8333652337436244  0.6034057333582403
  0.5777829111240400  0.1616329587973987  0.7230852709768623
  0.4222275346029042  0.8383525839664132  0.2768057261669009
  0.2344500636211704  0.4950959174173945  0.1706589179714984
  0.7655274543620109  0.5049134263768505  0.8292390586784955
 
  0.00000000E+00  0.00000000E+00  0.00000000E+00
  0.00000000E+00  0.00000000E+00  0.00000000E+00
  0.00000000E+00  0.00000000E+00  0.00000000E+00
  0.00000000E+00  0.00000000E+00  0.00000000E+00
  0.00000000E+00  0.00000000E+00  0.00000000E+00
  0.00000000E+00  0.00000000E+00  0.00000000E+00
  0.00000000E+00  0.00000000E+00  0.00000000E+00
  0.00000000E+00  0.00000000E+00  0.00000000E+00
  0.00000000E+00  0.00000000E+00  0.00000000E+00
  0.00000000E+00  0.00000000E+00  0.00000000E+00
  0.00000000E+00  0.00000000E+00  0.00000000E+00
  0.00000000E+00  0.00000000E+00  0.00000000E+00
  0.00000000E+00  0.00000000E+00  0.00000000E+00
  0.00000000E+00  0.00000000E+00  0.00000000E+00
  0.00000000E+00  0.00000000E+00  0.00000000E+00
  0.00000000E+00  0.00000000E+00  0.00000000E+00
  0.00000000E+00  0.00000000E+00  0.00000000E+00
  0.00000000E+00  0.00000000E+00  0.00000000E+00
