#1 (P 1)                                
   5.95404000382979     
     0.9963376661617277   -0.0001351881848160    0.0000835367862270
     0.2482476119139095    1.0469632568548304    0.0008447396307815
     0.4972548757941760    0.3424831267985242    1.0433594580869081
   Fe   Ta
    14     4
Direct
  0.2212952816830903  0.7749447727792846  0.6719057700809935
  0.8402941472882798  0.6544422256823863  0.0047502497707089
  0.6042607450820187  0.8864987689879051  0.3380948805136095
  0.6556159673663348  0.3302849744936704  0.0074046577754651
  0.3899937377217009  0.1138078190107809  0.6644490718645398
  0.4997263982637524  0.9988975349354254  0.0027951937190617
  0.0547661253077385  0.4374958374032771  0.6865895870784785
  0.5456741527237210  0.4341299489699814  0.6843334501852048
  0.1715351580328315  0.3302448840400098  0.0085830630810979
  0.1153420436399296  0.8881279765452095  0.3376278049815511
  0.2821204434883203  0.2028650456690390  0.3410339885728076
  0.7781561793479645  0.2032916014463835  0.3368329898712490
  0.3289500107690095  0.6596542675896268  0.0036591770617338
  0.8891737823733934  0.1161415202864495  0.6652901564055379
  0.7180092531089326  0.7767635565880379  0.6787573767141493
  0.4433147253157819  0.5494000438731700  0.3388910647329068
  0.9442194430451814  0.5367702574037597  0.3443019115032844
  0.0002324054420208  0.9998489642956054  0.9997796060876264
 
  0.00000000E+00  0.00000000E+00  0.00000000E+00
  0.00000000E+00  0.00000000E+00  0.00000000E+00
  0.00000000E+00  0.00000000E+00  0.00000000E+00
  0.00000000E+00  0.00000000E+00  0.00000000E+00
  0.00000000E+00  0.00000000E+00  0.00000000E+00
  0.00000000E+00  0.00000000E+00  0.00000000E+00
  0.00000000E+00  0.00000000E+00  0.00000000E+00
  0.00000000E+00  0.00000000E+00  0.00000000E+00
  0.00000000E+00  0.00000000E+00  0.00000000E+00
  0.00000000E+00  0.00000000E+00  0.00000000E+00
  0.00000000E+00  0.00000000E+00  0.00000000E+00
  0.00000000E+00  0.00000000E+00  0.00000000E+00
  0.00000000E+00  0.00000000E+00  0.00000000E+00
  0.00000000E+00  0.00000000E+00  0.00000000E+00
  0.00000000E+00  0.00000000E+00  0.00000000E+00
  0.00000000E+00  0.00000000E+00  0.00000000E+00
  0.00000000E+00  0.00000000E+00  0.00000000E+00
  0.00000000E+00  0.00000000E+00  0.00000000E+00
