#136 (P 42/m n m)                       
   4.54652000787477     
     0.9981492812097625    0.0000000000000000    0.0000000000000000
     0.0000000000000000    0.9981492812097625    0.0000000000000000
     0.0000000000000000    0.0000000000000000    0.6193021298085328
   Fe   C 
     4     2
Direct
  0.2006923469415287  0.7993076530584713  0.5000000000000000
  0.7006923469415287  0.7006923469415287 -0.0000000000000000
  0.2993076530584713  0.2993076530584713  0.0000000000000000
  0.7993076530584713  0.2006923469415287  0.5000000000000000
  0.5000000000000000  0.5000000000000000  0.5000000000000000
  0.0000000000000000 -0.0000000000000000 -0.0000000000000000
 
  0.00000000E+00  0.00000000E+00  0.00000000E+00
  0.00000000E+00  0.00000000E+00  0.00000000E+00
  0.00000000E+00  0.00000000E+00  0.00000000E+00
  0.00000000E+00  0.00000000E+00  0.00000000E+00
  0.00000000E+00  0.00000000E+00  0.00000000E+00
  0.00000000E+00  0.00000000E+00  0.00000000E+00
