#31 (P m n 21)                          
   2.83175999314348     
     1.0000184167271906    0.0000000000000000    0.0000000000000000
     0.0000000000000000    1.7208025572248880    0.0000000000000000
     0.0000000000000000    0.0000000000000000    1.3950362722695304
   Fe   C 
     4     2
Direct
  0.0000000000000000  0.4286017250271783  0.0188416262470881
  0.5000000000000000  0.5713982749728217  0.5188416262470881
  0.0000000000000000  0.9346019369072494  0.2284450948942833
  0.5000000000000000  0.0653980630927506  0.7284450948942833
  0.0000000000000000  0.2825006392713263  0.5007132788586262
  0.5000000000000000  0.7174993607286737  0.0007132788586262
 
  0.00000000E+00  0.00000000E+00  0.00000000E+00
  0.00000000E+00  0.00000000E+00  0.00000000E+00
  0.00000000E+00  0.00000000E+00  0.00000000E+00
  0.00000000E+00  0.00000000E+00  0.00000000E+00
  0.00000000E+00  0.00000000E+00  0.00000000E+00
  0.00000000E+00  0.00000000E+00  0.00000000E+00
