#8 (C m) [unique axis c] cell choice 1  
   9.71967001788192     
     0.0764613656856890    0.0000000000000000   -0.4260479305886333
    -0.4993974831394724    0.1438568072799938    0.0005409575120183
     0.4993974831394724    0.1438568072799938   -0.0005409575120183
   Fe   C 
     4     2
Direct
  0.6839767627783957  0.8220737198867125  0.1779262801132875
  0.5919015209974577  0.0776061462083489  0.9223938537916512
  0.1934696579161859  0.4033184649594789  0.5966815350405210
  0.1160929462900583  0.6569903853878475  0.3430096146121525
  0.4059860211786789  0.2473268298489052  0.7526731701510948
  0.9999930908392214  0.9998144537087135  0.0001855462912866
 
  0.00000000E+00  0.00000000E+00  0.00000000E+00
  0.00000000E+00  0.00000000E+00  0.00000000E+00
  0.00000000E+00  0.00000000E+00  0.00000000E+00
  0.00000000E+00  0.00000000E+00  0.00000000E+00
  0.00000000E+00  0.00000000E+00  0.00000000E+00
  0.00000000E+00  0.00000000E+00  0.00000000E+00
