#166 (R -3 m)                           
   2.79297999140649     
     0.0000009977526769    0.5772978825982157   -1.4914686141888158
     0.4999558615549958   -0.2886499390517839   -1.4914686126347101
    -0.4999538660496430   -0.2886499390517845   -1.4914686140772360
   Fe   C 
     2     1
Direct
  0.7500135565527474  0.7500180565526802  0.7500135565527424
  0.2499864434472527  0.2499879434473189  0.2499864434472577
  0.0000000000000000 -0.0000000000000000 -0.0000000000000000
 
  0.00000000E+00  0.00000000E+00  0.00000000E+00
  0.00000000E+00  0.00000000E+00  0.00000000E+00
  0.00000000E+00  0.00000000E+00  0.00000000E+00
