#11 (P 21/m) [unique axis c]            
   3.94619999059777     
     0.4091591037141233    0.0000000000000000   -1.2305290474118948
    -0.9995063699864660    0.0000000000000000    0.0000082709347496
     0.0000000000000000    0.7155295487345980    0.0000000000000000
   Fe   C 
     4     2
Direct
  0.5644410709472870  0.7681005609078001  0.2500000000000000
  0.4355589290527131  0.2318994390921998  0.7500000000000000
  0.0725730390688797  0.7764383135320575  0.2500000000000000
  0.9274269609311202  0.2235616864679425  0.7500000000000000
  0.2146724779880178  0.3570769607194616  0.2500000000000000
  0.7853275220119823  0.6429230392805383  0.7500000000000000
 
  0.00000000E+00  0.00000000E+00  0.00000000E+00
  0.00000000E+00  0.00000000E+00  0.00000000E+00
  0.00000000E+00  0.00000000E+00  0.00000000E+00
  0.00000000E+00  0.00000000E+00  0.00000000E+00
  0.00000000E+00  0.00000000E+00  0.00000000E+00
  0.00000000E+00  0.00000000E+00  0.00000000E+00
