#58 (P n n m)                           
   4.27691000555032     
     0.9995203447676723    0.0000000000000000    0.0000000000000000
     0.0000000000000000    1.0980389437003948    0.0000000000000000
     0.0000000000000000    0.0000000000000000    0.6592442608717527
   Fe   C 
     4     2
Direct
  0.2495476361473010  0.1558469597193368  0.5000000000000000
  0.7495476361473009  0.3441530402806632 -0.0000000000000000
  0.2504523638526990  0.6558469597193368  0.0000000000000000
  0.7504523638526991  0.8441530402806632  0.5000000000000000
  0.5000000000000000  0.5000000000000000  0.5000000000000000
  0.0000000000000000  0.0000000000000000  0.0000000000000000
 
  0.00000000E+00  0.00000000E+00  0.00000000E+00
  0.00000000E+00  0.00000000E+00  0.00000000E+00
  0.00000000E+00  0.00000000E+00  0.00000000E+00
  0.00000000E+00  0.00000000E+00  0.00000000E+00
  0.00000000E+00  0.00000000E+00  0.00000000E+00
  0.00000000E+00  0.00000000E+00  0.00000000E+00
