#160-R3m(hexagonalaxes)                 
  0.999999999876062     
     4.9822997521951899    0.0000000000000000    0.0000000000000000
    -2.4911498760975950    4.3147981546699476    0.0000000000000000
     0.0000000000000000    0.0000000000000000   23.8327183554640705
   Fe   Sc
    24    12
Direct
  0.1688604908910847  0.8311395091089153  0.1426100807190380
  0.1688604908910847  0.3377209817821623  0.1426100807190380
  0.6622790182178377  0.8311395091089153  0.1426100807190380
  0.5021904908910813  0.4978095091089187  0.8092800807190343
  0.5021904908910813  0.0043909817821657  0.8092800807190343
  0.9956090182178343  0.4978095091089187  0.8092800807190343
  0.8355304908910810  0.1644695091089190  0.4759400807190346
  0.8355304908910810  0.6710509817821659  0.4759400807190346
  0.3289490182178341  0.1644695091089190  0.4759400807190346
  0.1720345325086754  0.8279654674913246  0.3153167874734706
  0.1720345325086754  0.3440690650173508  0.3153167874734706
  0.6559309349826492  0.8279654674913246  0.3153167874734706
  0.5053645325086720  0.4946354674913280  0.9819867874734669
  0.5053645325086720  0.0107390650173542  0.9819867874734669
  0.9892609349826458  0.4946354674913280  0.9819867874734669
  0.8387045325086717  0.1612954674913283  0.6486467874734672
  0.8387045325086717  0.6773990650173545  0.6486467874734672
  0.3226009349826455  0.1612954674913283  0.6486467874734672
  0.0000000000000000  0.0000000000000000  0.3948027073851605
  0.3333299999999966  0.6666700000000034  0.0614727073851569
  0.6666700000000034  0.3333299999999966  0.7281327073851571
  0.0000000000000000  0.0000000000000000  0.5624205485704721
  0.3333299999999966  0.6666700000000034  0.2290905485704684
  0.6666700000000034  0.3333299999999966  0.8957505485704687
  0.0000000000000000  0.0000000000000000  0.8947939920402419
  0.3333299999999966  0.6666700000000034  0.5614639920402382
  0.6666700000000034  0.3333299999999966  0.2281239920402385
  0.0000000000000000  0.0000000000000000  0.7533729009612671
  0.3333299999999966  0.6666700000000034  0.4200429009612634
  0.6666700000000034  0.3333299999999966  0.0867029009612637
  0.0000000000000000  0.0000000000000000  0.2296512650270373
  0.3333299999999966  0.6666700000000034  0.8963212650270336
  0.6666700000000034  0.3333299999999966  0.5629812650270338
  0.0000000000000000  0.0000000000000000  0.0371379814383062
  0.3333299999999966  0.6666700000000034  0.7038079814383025
  0.6666700000000034  0.3333299999999966  0.3704679814383027
 
  0.00000000E+00  0.00000000E+00  0.00000000E+00
  0.00000000E+00  0.00000000E+00  0.00000000E+00
  0.00000000E+00  0.00000000E+00  0.00000000E+00
  0.00000000E+00  0.00000000E+00  0.00000000E+00
  0.00000000E+00  0.00000000E+00  0.00000000E+00
  0.00000000E+00  0.00000000E+00  0.00000000E+00
  0.00000000E+00  0.00000000E+00  0.00000000E+00
  0.00000000E+00  0.00000000E+00  0.00000000E+00
  0.00000000E+00  0.00000000E+00  0.00000000E+00
  0.00000000E+00  0.00000000E+00  0.00000000E+00
  0.00000000E+00  0.00000000E+00  0.00000000E+00
  0.00000000E+00  0.00000000E+00  0.00000000E+00
  0.00000000E+00  0.00000000E+00  0.00000000E+00
  0.00000000E+00  0.00000000E+00  0.00000000E+00
  0.00000000E+00  0.00000000E+00  0.00000000E+00
  0.00000000E+00  0.00000000E+00  0.00000000E+00
  0.00000000E+00  0.00000000E+00  0.00000000E+00
  0.00000000E+00  0.00000000E+00  0.00000000E+00
  0.00000000E+00  0.00000000E+00  0.00000000E+00
  0.00000000E+00  0.00000000E+00  0.00000000E+00
  0.00000000E+00  0.00000000E+00  0.00000000E+00
  0.00000000E+00  0.00000000E+00  0.00000000E+00
  0.00000000E+00  0.00000000E+00  0.00000000E+00
  0.00000000E+00  0.00000000E+00  0.00000000E+00
  0.00000000E+00  0.00000000E+00  0.00000000E+00
  0.00000000E+00  0.00000000E+00  0.00000000E+00
  0.00000000E+00  0.00000000E+00  0.00000000E+00
  0.00000000E+00  0.00000000E+00  0.00000000E+00
  0.00000000E+00  0.00000000E+00  0.00000000E+00
  0.00000000E+00  0.00000000E+00  0.00000000E+00
  0.00000000E+00  0.00000000E+00  0.00000000E+00
  0.00000000E+00  0.00000000E+00  0.00000000E+00
  0.00000000E+00  0.00000000E+00  0.00000000E+00
  0.00000000E+00  0.00000000E+00  0.00000000E+00
  0.00000000E+00  0.00000000E+00  0.00000000E+00
  0.00000000E+00  0.00000000E+00  0.00000000E+00
