#8-C1m1                                 
  0.999999999650511     
     8.7987466276144861    0.0000000000000000   -0.0036009179996904
     0.0000000000000000    4.9273225268968170    0.0000000000000000
    -2.9332832893073735    0.0000000000000000    8.0363118176897235
   Fe   Sc
    16     8
Direct
  0.6773569403874404  0.0000000000000000  0.1558943152376955
  0.1773569403874404  0.5000000000000000  0.1558943152376955
  0.3106435638157521  0.0000000000000000  0.1545124568986864
  0.8106435638157521  0.5000000000000000  0.1545124568986864
  0.5001999229571368  0.0000000000000000  0.6392111498162194
  0.0001999229571368  0.5000000000000000  0.6392111498162194
  0.8246705021574812  0.2506601590643101  0.3980930423235876
  0.8246705021574812  0.7493398409356899  0.3980930423235876
  0.3246705021574812  0.7506601590643101  0.3980930423235876
  0.3246705021574812  0.2493398409356899  0.3980930423235876
  0.5733123102472959  0.0000000000000000  0.3864594106039476
  0.0733123102472959  0.5000000000000000  0.3864594106039476
  0.6581338291324599  0.2512003182129376  0.8953212107726358
  0.6581338291324599  0.7487996817870624  0.8953212107726358
  0.1581338291324599  0.7512003182129376  0.8953212107726358
  0.1581338291324599  0.2487996817870624  0.8953212107726358
  0.9983077890423218  0.0000000000000000  0.1689230441787615
  0.4983077890423218  0.5000000000000000  0.1689230441787615
  0.4135445647749876  0.0000000000000000  0.9112907029363271
  0.9135445647749876  0.5000000000000000  0.9112907029363271
  0.1279688747172898  0.0000000000000000  0.5647611874920671
  0.6279688747172898  0.5000000000000000  0.5647611874920671
  0.8464673714778712  0.0000000000000000  0.6968692266438623
  0.3464673714778712  0.5000000000000000  0.6968692266438623
 
  0.00000000E+00  0.00000000E+00  0.00000000E+00
  0.00000000E+00  0.00000000E+00  0.00000000E+00
  0.00000000E+00  0.00000000E+00  0.00000000E+00
  0.00000000E+00  0.00000000E+00  0.00000000E+00
  0.00000000E+00  0.00000000E+00  0.00000000E+00
  0.00000000E+00  0.00000000E+00  0.00000000E+00
  0.00000000E+00  0.00000000E+00  0.00000000E+00
  0.00000000E+00  0.00000000E+00  0.00000000E+00
  0.00000000E+00  0.00000000E+00  0.00000000E+00
  0.00000000E+00  0.00000000E+00  0.00000000E+00
  0.00000000E+00  0.00000000E+00  0.00000000E+00
  0.00000000E+00  0.00000000E+00  0.00000000E+00
  0.00000000E+00  0.00000000E+00  0.00000000E+00
  0.00000000E+00  0.00000000E+00  0.00000000E+00
  0.00000000E+00  0.00000000E+00  0.00000000E+00
  0.00000000E+00  0.00000000E+00  0.00000000E+00
  0.00000000E+00  0.00000000E+00  0.00000000E+00
  0.00000000E+00  0.00000000E+00  0.00000000E+00
  0.00000000E+00  0.00000000E+00  0.00000000E+00
  0.00000000E+00  0.00000000E+00  0.00000000E+00
  0.00000000E+00  0.00000000E+00  0.00000000E+00
  0.00000000E+00  0.00000000E+00  0.00000000E+00
  0.00000000E+00  0.00000000E+00  0.00000000E+00
  0.00000000E+00  0.00000000E+00  0.00000000E+00
