#12-C12/m1                              
  0.999999999622901     
    14.2853754323078856    0.0000000000000000    0.0000726665739117
     0.0000000000000000    4.9045403772582921    0.0000000000000000
    -0.8176993231012026    0.0000000000000000    4.9037090971816992
   Fe   Sc
    16     8
Direct
  0.7648734562053647  0.0000000000000000  0.8971940717009517
  0.2351265437946353  0.0000000000000000  0.1028059282990483
  0.2648734562053647  0.5000000000000000  0.8971940717009517
  0.7351265437946353  0.5000000000000000  0.1028059282990483
  0.1198675460812879  0.2489634954413447  0.8086846139881061
  0.8801324539187121  0.2489634954413447  0.1913153860118939
  0.8801324539187121  0.7510365045586553  0.1913153860118939
  0.1198675460812879  0.7510365045586553  0.8086846139881061
  0.6198675460812879  0.7489634954413447  0.8086846139881061
  0.3801324539187121  0.7489634954413447  0.1913153860118939
  0.3801324539187121  0.2510365045586553  0.1913153860118939
  0.6198675460812879  0.2510365045586553  0.8086846139881061
  0.0000000000000000  0.5000000000000000  0.0000000000000000
  0.5000000000000000  0.0000000000000000  0.0000000000000000
  0.0000000000000000  0.5000000000000000  0.5000000000000000
  0.5000000000000000  0.0000000000000000  0.5000000000000000
  0.6950524234488142  0.0000000000000000  0.3472845508619926
  0.3049475765511858  0.0000000000000000  0.6527154491380074
  0.1950524234488142  0.5000000000000000  0.3472845508619926
  0.8049475765511858  0.5000000000000000  0.6527154491380074
  0.9372932859507515  0.0000000000000000  0.7150879223747566
  0.0627067140492485  0.0000000000000000  0.2849120776252434
  0.4372932859507515  0.5000000000000000  0.7150879223747566
  0.5627067140492485  0.5000000000000000  0.2849120776252434
 
  0.00000000E+00  0.00000000E+00  0.00000000E+00
  0.00000000E+00  0.00000000E+00  0.00000000E+00
  0.00000000E+00  0.00000000E+00  0.00000000E+00
  0.00000000E+00  0.00000000E+00  0.00000000E+00
  0.00000000E+00  0.00000000E+00  0.00000000E+00
  0.00000000E+00  0.00000000E+00  0.00000000E+00
  0.00000000E+00  0.00000000E+00  0.00000000E+00
  0.00000000E+00  0.00000000E+00  0.00000000E+00
  0.00000000E+00  0.00000000E+00  0.00000000E+00
  0.00000000E+00  0.00000000E+00  0.00000000E+00
  0.00000000E+00  0.00000000E+00  0.00000000E+00
  0.00000000E+00  0.00000000E+00  0.00000000E+00
  0.00000000E+00  0.00000000E+00  0.00000000E+00
  0.00000000E+00  0.00000000E+00  0.00000000E+00
  0.00000000E+00  0.00000000E+00  0.00000000E+00
  0.00000000E+00  0.00000000E+00  0.00000000E+00
  0.00000000E+00  0.00000000E+00  0.00000000E+00
  0.00000000E+00  0.00000000E+00  0.00000000E+00
  0.00000000E+00  0.00000000E+00  0.00000000E+00
  0.00000000E+00  0.00000000E+00  0.00000000E+00
  0.00000000E+00  0.00000000E+00  0.00000000E+00
  0.00000000E+00  0.00000000E+00  0.00000000E+00
  0.00000000E+00  0.00000000E+00  0.00000000E+00
  0.00000000E+00  0.00000000E+00  0.00000000E+00
