#194-P63/m2/m2/c                        
   1.00000000043693     
     4.9033123377740253    0.0000000000000000    0.0000000000000000
    -2.4516561688870127    4.2463930472019706    0.0000000000000000
     0.0000000000000000    0.0000000000000000    8.0426854026050520
   Fe   Sc
     8     4
Direct
  0.1680050557005472  0.3360101114010945  0.2500000000000000
  0.8319949442994528  0.1680050557005472  0.7500000000000000
  0.6639898885989055  0.8319949442994528  0.2500000000000000
  0.8319949442994528  0.6639898885989055  0.7500000000000000
  0.1680050557005472  0.8319949442994528  0.2500000000000000
  0.3360101114010945  0.1680050557005472  0.7500000000000000
  0.0000000000000000  0.0000000000000000  0.0000000000000000
  0.0000000000000000  0.0000000000000000  0.5000000000000000
  0.3333299999999966  0.6666700000000034  0.9374607102545482
  0.6666600000000003  0.3333299999999966  0.4374607102545482
  0.6666600000000003  0.3333299999999966  0.0625392897454518
  0.3333299999999966  0.6666600000000003  0.5625392897454518
 
  0.00000000E+00  0.00000000E+00  0.00000000E+00
  0.00000000E+00  0.00000000E+00  0.00000000E+00
  0.00000000E+00  0.00000000E+00  0.00000000E+00
  0.00000000E+00  0.00000000E+00  0.00000000E+00
  0.00000000E+00  0.00000000E+00  0.00000000E+00
  0.00000000E+00  0.00000000E+00  0.00000000E+00
  0.00000000E+00  0.00000000E+00  0.00000000E+00
  0.00000000E+00  0.00000000E+00  0.00000000E+00
  0.00000000E+00  0.00000000E+00  0.00000000E+00
  0.00000000E+00  0.00000000E+00  0.00000000E+00
  0.00000000E+00  0.00000000E+00  0.00000000E+00
  0.00000000E+00  0.00000000E+00  0.00000000E+00
