#156-P3m1                               
  0.999999999454734     
     4.9220594296744133    0.0000000000000000    0.0000000000000000
    -2.4610297148372067    4.2626285050347894    0.0000000000000000
     0.0000000000000000    0.0000000000000000    8.1265023349221650
   Fe   Sc
     8     4
Direct
  0.1610890189668197  0.8389109810331803  0.9177094923663347
  0.1610890189668197  0.3221780379336465  0.9177094923663347
  0.6778219620663535  0.8389109810331803  0.9177094923663347
  0.3333299999999966  0.6666700000000034  0.6763090028235368
  0.5053854593101121  0.4946145406898879  0.4365215613170221
  0.5053854593101121  0.0107709186202172  0.4365215613170221
  0.9892290813797828  0.4946145406898879  0.4365215613170221
  0.6666700000000034  0.3333299999999966  0.1111272293006849
  0.0000000000000000  0.0000000000000000  0.2419096145299235
  0.0000000000000000  0.0000000000000000  0.6157589458298460
  0.6666700000000034  0.3333299999999966  0.7514367953709922
  0.3333299999999966  0.6666700000000034  0.1729752510949254
 
  0.00000000E+00  0.00000000E+00  0.00000000E+00
  0.00000000E+00  0.00000000E+00  0.00000000E+00
  0.00000000E+00  0.00000000E+00  0.00000000E+00
  0.00000000E+00  0.00000000E+00  0.00000000E+00
  0.00000000E+00  0.00000000E+00  0.00000000E+00
  0.00000000E+00  0.00000000E+00  0.00000000E+00
  0.00000000E+00  0.00000000E+00  0.00000000E+00
  0.00000000E+00  0.00000000E+00  0.00000000E+00
  0.00000000E+00  0.00000000E+00  0.00000000E+00
  0.00000000E+00  0.00000000E+00  0.00000000E+00
  0.00000000E+00  0.00000000E+00  0.00000000E+00
  0.00000000E+00  0.00000000E+00  0.00000000E+00
