#12-C12/m1                              
   1.00000000042383     
     8.4761663538318572    0.0000000000000000    0.0558029509943231
     0.0000000000000000    5.4126499795581502    0.0000000000000000
    -0.0507067404538945    0.0000000000000000    4.1561822197485121
   Fe   Ge
    12     4
Direct
  0.1320735979517380  0.0000000000000000  0.2503250077934425
  0.8679264020482549  0.0000000000000000  0.7496749922065575
  0.6320735979517451  0.5000000000000000  0.2503250077934425
  0.3679264020482549  0.5000000000000000  0.7496749922065575
  0.6057205794623357  0.2441973831720290  0.7508108573854599
  0.3942794205376643  0.2441973831720290  0.2491891426145401
  0.3942794205376643  0.7558026168279710  0.2491891426145401
  0.6057205794623357  0.7558026168279710  0.7508108573854599
  0.1057205794623357  0.7441973831720290  0.7508108573854599
  0.8942794205376643  0.7441973831720290  0.2491891426145401
  0.8942794205376643  0.2558026168279710  0.2491891426145401
  0.1057205794623357  0.2558026168279710  0.7508108573854599
  0.6513105228846285  0.0000000000000000  0.2510799339210692
  0.3486894771153715  0.0000000000000000  0.7489200660789308
  0.1513105228846285  0.5000000000000000  0.2510799339210692
  0.8486894771153715  0.5000000000000000  0.7489200660789308
 
  0.00000000E+00  0.00000000E+00  0.00000000E+00
  0.00000000E+00  0.00000000E+00  0.00000000E+00
  0.00000000E+00  0.00000000E+00  0.00000000E+00
  0.00000000E+00  0.00000000E+00  0.00000000E+00
  0.00000000E+00  0.00000000E+00  0.00000000E+00
  0.00000000E+00  0.00000000E+00  0.00000000E+00
  0.00000000E+00  0.00000000E+00  0.00000000E+00
  0.00000000E+00  0.00000000E+00  0.00000000E+00
  0.00000000E+00  0.00000000E+00  0.00000000E+00
  0.00000000E+00  0.00000000E+00  0.00000000E+00
  0.00000000E+00  0.00000000E+00  0.00000000E+00
  0.00000000E+00  0.00000000E+00  0.00000000E+00
  0.00000000E+00  0.00000000E+00  0.00000000E+00
  0.00000000E+00  0.00000000E+00  0.00000000E+00
  0.00000000E+00  0.00000000E+00  0.00000000E+00
  0.00000000E+00  0.00000000E+00  0.00000000E+00
