#194-P63/m2/m2/c                        
   1.00000000074765     
     5.1258959677274127    0.0000000000000000    0.0000000000000000
    -2.5629479838637064    4.4391561252081591    0.0000000000000000
     0.0000000000000000    0.0000000000000000    4.2085450555061135
   Fe   Ge
     6     2
Direct
  0.1622302732270242  0.3244705464540516  0.2500000000000000
  0.8377597267729797  0.1622302732270242  0.7500000000000000
  0.6755294535459484  0.8377597267729797  0.2500000000000000
  0.8377697267729758  0.6755294535459484  0.7500000000000000
  0.1622402732270203  0.8377697267729758  0.2500000000000000
  0.3244705464540516  0.1622402732270203  0.7500000000000000
  0.3333299999999966  0.6666700000000034  0.7500000000000000
  0.6666600000000003  0.3333299999999966  0.2500000000000000
 
  0.00000000E+00  0.00000000E+00  0.00000000E+00
  0.00000000E+00  0.00000000E+00  0.00000000E+00
  0.00000000E+00  0.00000000E+00  0.00000000E+00
  0.00000000E+00  0.00000000E+00  0.00000000E+00
  0.00000000E+00  0.00000000E+00  0.00000000E+00
  0.00000000E+00  0.00000000E+00  0.00000000E+00
  0.00000000E+00  0.00000000E+00  0.00000000E+00
  0.00000000E+00  0.00000000E+00  0.00000000E+00
