#139-I4/m2/m2/m                         
  0.999999999627550     
     3.9772139734519207    0.0000000000000000    0.0000000000000000
     0.0000000000000000    3.9772139734519207    0.0000000000000000
     0.0000000000000000    0.0000000000000000   11.8546208326615012
   Fe   Ge
    12     4
Direct
  0.0000000000000000  0.0000000000000000  0.3764480614026766
  0.0000000000000000  0.0000000000000000  0.6235519385973234
  0.5000000000000000  0.5000000000000000  0.8764480614026766
  0.5000000000000000  0.5000000000000000  0.1235519385973234
  0.0000000000000000  0.5000000000000000  0.0000000000000000
  0.5000000000000000  0.0000000000000000  0.0000000000000000
  0.5000000000000000  0.0000000000000000  0.5000000000000000
  0.0000000000000000  0.5000000000000000  0.5000000000000000
  0.0000000000000000  0.5000000000000000  0.2500000000000000
  0.0000000000000000  0.5000000000000000  0.7500000000000000
  0.5000000000000000  0.0000000000000000  0.7500000000000000
  0.5000000000000000  0.0000000000000000  0.2500000000000000
  0.0000000000000000  0.0000000000000000  0.8694268240558003
  0.0000000000000000  0.0000000000000000  0.1305731759441997
  0.5000000000000000  0.5000000000000000  0.3694268240558003
  0.5000000000000000  0.5000000000000000  0.6305731759441997
 
  0.00000000E+00  0.00000000E+00  0.00000000E+00
  0.00000000E+00  0.00000000E+00  0.00000000E+00
  0.00000000E+00  0.00000000E+00  0.00000000E+00
  0.00000000E+00  0.00000000E+00  0.00000000E+00
  0.00000000E+00  0.00000000E+00  0.00000000E+00
  0.00000000E+00  0.00000000E+00  0.00000000E+00
  0.00000000E+00  0.00000000E+00  0.00000000E+00
  0.00000000E+00  0.00000000E+00  0.00000000E+00
  0.00000000E+00  0.00000000E+00  0.00000000E+00
  0.00000000E+00  0.00000000E+00  0.00000000E+00
  0.00000000E+00  0.00000000E+00  0.00000000E+00
  0.00000000E+00  0.00000000E+00  0.00000000E+00
  0.00000000E+00  0.00000000E+00  0.00000000E+00
  0.00000000E+00  0.00000000E+00  0.00000000E+00
  0.00000000E+00  0.00000000E+00  0.00000000E+00
  0.00000000E+00  0.00000000E+00  0.00000000E+00
