#194 (P 63/m m c)                       
   4.76782999741888     
     1.0025952205446074   -0.0000000000000000   -0.0000000000000000
    -0.5012976102723037    0.8682725237756217    0.0000000000000000
    -0.0000000000000000    0.0000000000000000    1.6423935189647894
   Fe   Ta
     8     4
Direct
  0.8316194150604830  0.6632388401209667  0.2500000000000000
  0.1683872449395203  0.8316227550604822  0.7500000000000000
  0.3367711598790429  0.1683905849395202  0.2500000000000000
  0.1683872449395210  0.3367744998790357  0.7500000000000000
  0.8316194150604835  0.1683905849395202  0.2500000000000000
  0.6632355001209610  0.8316227550604822  0.7500000000000000
  0.0000000000000000 -0.0000000000000000  0.0000000000000000
  0.0000000000000000 -0.0000000000000000  0.5000000000000000
  0.3333333300000021  0.6666666699999979  0.4359574288004044
  0.6666633299999987  0.3333366700000013  0.9359574288004044
  0.6666633299999987  0.3333366700000013  0.5640425711995956
  0.3333333300000021  0.6666666699999979  0.0640425711995956
 
  0.00000000E+00  0.00000000E+00  0.00000000E+00
  0.00000000E+00  0.00000000E+00  0.00000000E+00
  0.00000000E+00  0.00000000E+00  0.00000000E+00
  0.00000000E+00  0.00000000E+00  0.00000000E+00
  0.00000000E+00  0.00000000E+00  0.00000000E+00
  0.00000000E+00  0.00000000E+00  0.00000000E+00
  0.00000000E+00  0.00000000E+00  0.00000000E+00
  0.00000000E+00  0.00000000E+00  0.00000000E+00
  0.00000000E+00  0.00000000E+00  0.00000000E+00
  0.00000000E+00  0.00000000E+00  0.00000000E+00
  0.00000000E+00  0.00000000E+00  0.00000000E+00
  0.00000000E+00  0.00000000E+00  0.00000000E+00
