#139-I4/m2/m2/m                         
  0.999999999536121     
     3.0724936551695552    0.0000000000000000    0.0000000000000000
     0.0000000000000000    3.0724936551695552    0.0000000000000000
     0.0000000000000000   -0.0000000000000000    8.6038117941660097
   Fe   Ta
     4     2
Direct
  0.0000000000000000 -0.0000000000000000  0.6719656759818459
 -0.0000000000000000 -0.0000000000000000  0.3280343240181541
  0.5000000000000000  0.5000000000000000  0.1719656759818459
  0.5000000000000000  0.5000000000000000  0.8280343240181541
 -0.0000000000000000  0.0000000000000000 -0.0000000000000000
  0.5000000000000000  0.5000000000000000  0.5000000000000000
 
  0.00000000E+00  0.00000000E+00  0.00000000E+00
  0.00000000E+00  0.00000000E+00  0.00000000E+00
  0.00000000E+00  0.00000000E+00  0.00000000E+00
  0.00000000E+00  0.00000000E+00  0.00000000E+00
  0.00000000E+00  0.00000000E+00  0.00000000E+00
  0.00000000E+00  0.00000000E+00  0.00000000E+00
