#164 (P -3 m 1)                         
   4.23312999244954     
     0.9998059443778895   -0.0000000000000000    0.0000000000000000
    -0.4999029721889447    0.8658569431365533   -0.0000000000000000
     0.0000000000000000   -0.0000000000000000    1.2146880480935105
   Fe   Ta
     4     2
Direct
 -0.0000000000000000 -0.0000000000000000  0.5000000000000000
  0.3333349999999982  0.6666700000000034  0.8265225801641353
  0.6666650000000018  0.3333299999999966  0.1734774198358648
 -0.0000000000000000 -0.0000000000000000  0.0000000000000000
  0.3333349999999982  0.6666700000000034  0.3170653485301492
  0.6666650000000018  0.3333299999999966  0.6829346514698508
 
  0.00000000E+00  0.00000000E+00  0.00000000E+00
  0.00000000E+00  0.00000000E+00  0.00000000E+00
  0.00000000E+00  0.00000000E+00  0.00000000E+00
  0.00000000E+00  0.00000000E+00  0.00000000E+00
  0.00000000E+00  0.00000000E+00  0.00000000E+00
  0.00000000E+00  0.00000000E+00  0.00000000E+00
