#63 (C m c m)                           
   3.06375999607694     
    -0.5022224340507486    2.0592325030069061    0.0000000000000000
    -0.5022224340507486   -2.0592325030069061    0.0000000000000000
     0.0000000000000000   -0.0000000000000000    1.3533980146155322
   Fe   Ta
     4     2
Direct
  0.0808452648731507  0.9191547351268493  0.2500000000000000
  0.9191547351268493  0.0808452648731507  0.7500000000000000
  0.7439339080578307  0.2560660919421622  0.2500000000000000
  0.2560660919421622  0.7439339080578307  0.7500000000000000
  0.4094562221651176  0.5905437778348824  0.2500000000000000
  0.5905437778348824  0.4094562221651176  0.7500000000000000
 
  0.00000000E+00  0.00000000E+00  0.00000000E+00
  0.00000000E+00  0.00000000E+00  0.00000000E+00
  0.00000000E+00  0.00000000E+00  0.00000000E+00
  0.00000000E+00  0.00000000E+00  0.00000000E+00
  0.00000000E+00  0.00000000E+00  0.00000000E+00
  0.00000000E+00  0.00000000E+00  0.00000000E+00
