#2-P-1                                  
  0.999999999213362     
     4.8135717435359675   -0.0013047555655071    0.0013654447993332
     0.0939547357805700    4.8995922580705829    0.0033063414789057
     1.1950434964210956    2.3134218950774947    5.5821995914106628
   Fe   Sc
     8     2
Direct
  0.0000000000000000  0.0000000000000000  0.5000000000000000
  0.5000000000000000  0.0000000000000000  0.5000000000000000
  0.6738467954795482  0.6074859738203173  0.8211321084832548
  0.3261532045204518  0.3925140261796827  0.1788678915167452
  0.1362133402507553  0.8119564470316831  0.8855617710485788
  0.8637866597492447  0.1880435529683169  0.1144382289514212
  0.6717484798650517  0.0989433272467366  0.8165280772723804
  0.3282515201349483  0.9010566727532634  0.1834719227276196
  0.7843225895798440  0.5834809102399845  0.3285210051651077
  0.2156774104201560  0.4165190897600155  0.6714789948348923
 
  0.00000000E+00  0.00000000E+00  0.00000000E+00
  0.00000000E+00  0.00000000E+00  0.00000000E+00
  0.00000000E+00  0.00000000E+00  0.00000000E+00
  0.00000000E+00  0.00000000E+00  0.00000000E+00
  0.00000000E+00  0.00000000E+00  0.00000000E+00
  0.00000000E+00  0.00000000E+00  0.00000000E+00
  0.00000000E+00  0.00000000E+00  0.00000000E+00
  0.00000000E+00  0.00000000E+00  0.00000000E+00
  0.00000000E+00  0.00000000E+00  0.00000000E+00
  0.00000000E+00  0.00000000E+00  0.00000000E+00
