#11-P121/m1                             
  0.999999998802091     
     5.0036821676439835    0.0000000000000000    0.0077377610573896
     0.0000000000000000    4.1144364882798001    0.0000000000000000
    -1.6288791581333135    0.0000000000000000    6.2712432953603150
   Fe   Sc
     8     2
Direct
  0.6602160825483026  0.2500000000000000  0.5451070954454025
  0.3397839174516974  0.7500000000000000  0.4548929045545975
  0.0707311583514567  0.2500000000000000  0.3397116646906611
  0.9292688416485433  0.7500000000000000  0.6602883353093389
  0.8405661344689008  0.2500000000000000  0.9550003480997589
  0.1594338655310992  0.7500000000000000  0.0449996519002482
  0.4274645124287986  0.2500000000000000  0.1615459179056984
  0.5725354875712014  0.7500000000000000  0.8384540820943016
  0.2507263248780802  0.2500000000000000  0.7505360187291359
  0.7492736751219198  0.7500000000000000  0.2494639812708641
 
  0.00000000E+00  0.00000000E+00  0.00000000E+00
  0.00000000E+00  0.00000000E+00  0.00000000E+00
  0.00000000E+00  0.00000000E+00  0.00000000E+00
  0.00000000E+00  0.00000000E+00  0.00000000E+00
  0.00000000E+00  0.00000000E+00  0.00000000E+00
  0.00000000E+00  0.00000000E+00  0.00000000E+00
  0.00000000E+00  0.00000000E+00  0.00000000E+00
  0.00000000E+00  0.00000000E+00  0.00000000E+00
  0.00000000E+00  0.00000000E+00  0.00000000E+00
  0.00000000E+00  0.00000000E+00  0.00000000E+00
