#12-C12/m1                              
   1.00000000004110     
     9.0067716188217339    0.0000000000000000   -0.0088642739697174
     0.0000000000000000    4.0106786884781958    0.0000000000000000
    -3.8997261237911398    0.0000000000000000    7.3813250757867737
   Fe   Sc
    16     4
Direct
  0.6555140132935762  0.0000000000000000  0.0343564646057359
  0.3444859867064238  0.0000000000000000  0.9656435353942641
  0.1555140132935762  0.5000000000000000  0.0343564646057359
  0.8444859867064238  0.5000000000000000  0.9656435353942641
  0.9683292246293433  0.0000000000000000  0.1230273893312059
  0.0316707753706567  0.0000000000000000  0.8769726106687941
  0.4683292246293433  0.5000000000000000  0.1230273893312059
  0.5316707753706567  0.5000000000000000  0.8769726106687941
  0.3863243855580265  0.0000000000000000  0.7044253807279119
  0.6136756144419806  0.0000000000000000  0.2955746192720881
  0.8863243855580194  0.5000000000000000  0.7044253807279119
  0.1136756144419735  0.5000000000000000  0.2955746192720881
  0.8820339235536849  0.0000000000000000  0.5482912855501212
  0.1179660764463151  0.0000000000000000  0.4517087144498788
  0.3820339235536849  0.5000000000000000  0.5482912855501212
  0.6179660764463151  0.5000000000000000  0.4517087144498788
  0.6701112809902625  0.0000000000000000  0.7050895319201373
  0.3298887190097375  0.0000000000000000  0.2949104680798627
  0.1701112809902554  0.5000000000000000  0.7050895319201373
  0.8298887190097375  0.5000000000000000  0.2949104680798627
 
  0.00000000E+00  0.00000000E+00  0.00000000E+00
  0.00000000E+00  0.00000000E+00  0.00000000E+00
  0.00000000E+00  0.00000000E+00  0.00000000E+00
  0.00000000E+00  0.00000000E+00  0.00000000E+00
  0.00000000E+00  0.00000000E+00  0.00000000E+00
  0.00000000E+00  0.00000000E+00  0.00000000E+00
  0.00000000E+00  0.00000000E+00  0.00000000E+00
  0.00000000E+00  0.00000000E+00  0.00000000E+00
  0.00000000E+00  0.00000000E+00  0.00000000E+00
  0.00000000E+00  0.00000000E+00  0.00000000E+00
  0.00000000E+00  0.00000000E+00  0.00000000E+00
  0.00000000E+00  0.00000000E+00  0.00000000E+00
  0.00000000E+00  0.00000000E+00  0.00000000E+00
  0.00000000E+00  0.00000000E+00  0.00000000E+00
  0.00000000E+00  0.00000000E+00  0.00000000E+00
  0.00000000E+00  0.00000000E+00  0.00000000E+00
  0.00000000E+00  0.00000000E+00  0.00000000E+00
  0.00000000E+00  0.00000000E+00  0.00000000E+00
  0.00000000E+00  0.00000000E+00  0.00000000E+00
  0.00000000E+00  0.00000000E+00  0.00000000E+00
