#12-C12/m1                              
   1.00000000056639     
    11.4007779080060470    0.0000000000000000    0.0040305617174630
     0.0000000000000000    4.9067394105274325    0.0000000000000000
    -0.9606185384743340    0.0000000000000000    4.7136101407711291
   Fe   Sc
    16     4
Direct
  0.1592106909680453  0.2554651246703799  0.8263568256100626
  0.8407893090319547  0.2554651246703799  0.1736431743899374
  0.8407893090319547  0.7445348753296201  0.1736431743899374
  0.1592106909680453  0.7445348753296201  0.8263568256100626
  0.6592106909680453  0.7554651246703799  0.8263568256100626
  0.3407893090319547  0.7554651246703799  0.1736431743899374
  0.3407893090319547  0.2445348753296201  0.1736431743899374
  0.6592106909680453  0.2445348753296201  0.8263568256100626
  0.0000000000000000  0.5000000000000000  0.0000000000000000
  0.5000000000000000  0.0000000000000000  0.0000000000000000
  0.3072621590474398  0.0000000000000000  0.6368550009001837
  0.6927378409525602  0.0000000000000000  0.3631449990998163
  0.8072621590474398  0.5000000000000000  0.6368550009001837
  0.1927378409525602  0.5000000000000000  0.3631449990998163
  0.0000000000000000  0.5000000000000000  0.5000000000000000
  0.5000000000000000  0.0000000000000000  0.5000000000000000
  0.9139475461436177  0.0000000000000000  0.7162659149787842
  0.0860524538563823  0.0000000000000000  0.2837340850212158
  0.4139475461436177  0.5000000000000000  0.7162659149787842
  0.5860524538563823  0.5000000000000000  0.2837340850212158
 
  0.00000000E+00  0.00000000E+00  0.00000000E+00
  0.00000000E+00  0.00000000E+00  0.00000000E+00
  0.00000000E+00  0.00000000E+00  0.00000000E+00
  0.00000000E+00  0.00000000E+00  0.00000000E+00
  0.00000000E+00  0.00000000E+00  0.00000000E+00
  0.00000000E+00  0.00000000E+00  0.00000000E+00
  0.00000000E+00  0.00000000E+00  0.00000000E+00
  0.00000000E+00  0.00000000E+00  0.00000000E+00
  0.00000000E+00  0.00000000E+00  0.00000000E+00
  0.00000000E+00  0.00000000E+00  0.00000000E+00
  0.00000000E+00  0.00000000E+00  0.00000000E+00
  0.00000000E+00  0.00000000E+00  0.00000000E+00
  0.00000000E+00  0.00000000E+00  0.00000000E+00
  0.00000000E+00  0.00000000E+00  0.00000000E+00
  0.00000000E+00  0.00000000E+00  0.00000000E+00
  0.00000000E+00  0.00000000E+00  0.00000000E+00
  0.00000000E+00  0.00000000E+00  0.00000000E+00
  0.00000000E+00  0.00000000E+00  0.00000000E+00
  0.00000000E+00  0.00000000E+00  0.00000000E+00
  0.00000000E+00  0.00000000E+00  0.00000000E+00
