#12-C12/m1                              
  0.999999999664465     
     8.5062553391462004    0.0000000000000000    0.0064224190187578
     0.0000000000000000    4.8656311700713424    0.0000000000000000
    -1.9856872115148001    0.0000000000000000    6.2488211876247171
   Fe   Sc
    16     4
Direct
  0.3401243000651988  0.2430917974160209  0.6785438706202527
  0.6598756999348012  0.2430917974160209  0.3214561293797473
  0.6598756999348012  0.7569082025839791  0.3214561293797473
  0.3401243000651988  0.7569082025839791  0.6785438706202527
  0.8401243000651988  0.7430917974160209  0.6785438706202527
  0.1598756999348012  0.7430917974160209  0.3214561293797473
  0.1598756999348012  0.2569082025839791  0.3214561293797473
  0.8401243000651988  0.2569082025839791  0.6785438706202527
  0.0000000000000000  0.0000000000000000  0.5000000000000000
  0.5000000000000000  0.5000000000000000  0.5000000000000000
  0.5968834429790206  0.0000000000000000  0.6756803664241531
  0.4031165570209794  0.0000000000000000  0.3243196335758469
  0.0968834429790206  0.5000000000000000  0.6756803664241531
  0.9031165570209794  0.5000000000000000  0.3243196335758469
  0.0000000000000000  0.5000000000000000  0.0000000000000000
  0.5000000000000000  0.0000000000000000  0.0000000000000000
  0.8523270277914321  0.0000000000000000  0.0831644224155852
  0.1476729722085679  0.0000000000000000  0.9168355775844148
  0.3523270277914321  0.5000000000000000  0.0831644224155852
  0.6476729722085679  0.5000000000000000  0.9168355775844148
 
  0.00000000E+00  0.00000000E+00  0.00000000E+00
  0.00000000E+00  0.00000000E+00  0.00000000E+00
  0.00000000E+00  0.00000000E+00  0.00000000E+00
  0.00000000E+00  0.00000000E+00  0.00000000E+00
  0.00000000E+00  0.00000000E+00  0.00000000E+00
  0.00000000E+00  0.00000000E+00  0.00000000E+00
  0.00000000E+00  0.00000000E+00  0.00000000E+00
  0.00000000E+00  0.00000000E+00  0.00000000E+00
  0.00000000E+00  0.00000000E+00  0.00000000E+00
  0.00000000E+00  0.00000000E+00  0.00000000E+00
  0.00000000E+00  0.00000000E+00  0.00000000E+00
  0.00000000E+00  0.00000000E+00  0.00000000E+00
  0.00000000E+00  0.00000000E+00  0.00000000E+00
  0.00000000E+00  0.00000000E+00  0.00000000E+00
  0.00000000E+00  0.00000000E+00  0.00000000E+00
  0.00000000E+00  0.00000000E+00  0.00000000E+00
  0.00000000E+00  0.00000000E+00  0.00000000E+00
  0.00000000E+00  0.00000000E+00  0.00000000E+00
  0.00000000E+00  0.00000000E+00  0.00000000E+00
  0.00000000E+00  0.00000000E+00  0.00000000E+00
