#166-R-32/m(hexagonalaxes)              
   1.00000000073757     
     4.1164388502219706    0.0000000000000000    0.0000000000000000
    -2.0582194251109853    3.5649406174174323    0.0000000000000000
     0.0000000000000000    0.0000000000000000   13.2020943863499074
   Fe   Sc
    12     3
Direct
  0.0000000000000000  0.0000000000000000  0.2049273837152015
  0.0000000000000000  0.0000000000000000  0.7950726162847985
  0.3333299999999966  0.6666700000000034  0.8715973837151978
  0.3333299999999966  0.6666700000000034  0.4617426162848020
  0.6666700000000034  0.3333299999999966  0.5382573837151980
  0.6666700000000034  0.3333299999999966  0.1284026162848022
  0.0000000000000000  0.0000000000000000  0.4107721703845613
  0.0000000000000000  0.0000000000000000  0.5892278296154387
  0.3333299999999966  0.6666700000000034  0.0774421703845576
  0.3333299999999966  0.6666700000000034  0.2558978296154422
  0.6666700000000034  0.3333299999999966  0.7441021703845578
  0.6666700000000034  0.3333299999999966  0.9225578296154424
  0.0000000000000000  0.0000000000000000  0.0000000000000000
  0.3333299999999966  0.6666700000000034  0.6666700000000034
  0.6666700000000034  0.3333299999999966  0.3333299999999966
 
  0.00000000E+00  0.00000000E+00  0.00000000E+00
  0.00000000E+00  0.00000000E+00  0.00000000E+00
  0.00000000E+00  0.00000000E+00  0.00000000E+00
  0.00000000E+00  0.00000000E+00  0.00000000E+00
  0.00000000E+00  0.00000000E+00  0.00000000E+00
  0.00000000E+00  0.00000000E+00  0.00000000E+00
  0.00000000E+00  0.00000000E+00  0.00000000E+00
  0.00000000E+00  0.00000000E+00  0.00000000E+00
  0.00000000E+00  0.00000000E+00  0.00000000E+00
  0.00000000E+00  0.00000000E+00  0.00000000E+00
  0.00000000E+00  0.00000000E+00  0.00000000E+00
  0.00000000E+00  0.00000000E+00  0.00000000E+00
  0.00000000E+00  0.00000000E+00  0.00000000E+00
  0.00000000E+00  0.00000000E+00  0.00000000E+00
  0.00000000E+00  0.00000000E+00  0.00000000E+00
