#87-I4/m                                
  0.999999999123223     
     6.7102089602331771   -0.0000000080188952    0.0000000000000000
     0.0000000080188952    6.7102089602331771    0.0000000000000000
     0.0000000000000000    0.0000000000000000    2.9381896205216411
   Fe   Sc
     8     2
Direct
  0.6770990529589653  0.8857334235777614  0.0000000000000000
  0.3229009470410347  0.1142665764222386  0.0000000000000000
  0.1142665764222386  0.6770990529589653  0.0000000000000000
  0.8857334235777614  0.3229009470410347  0.0000000000000000
  0.1770990529589653  0.3857334235777614  0.5000000000000000
  0.8229009470410347  0.6142665764222386  0.5000000000000000
  0.6142665764222386  0.1770990529589653  0.5000000000000000
  0.3857334235777614  0.8229009470410347  0.5000000000000000
  0.0000000000000000  0.0000000000000000  0.5000000000000000
  0.5000000000000000  0.5000000000000000  0.0000000000000000
 
  0.00000000E+00  0.00000000E+00  0.00000000E+00
  0.00000000E+00  0.00000000E+00  0.00000000E+00
  0.00000000E+00  0.00000000E+00  0.00000000E+00
  0.00000000E+00  0.00000000E+00  0.00000000E+00
  0.00000000E+00  0.00000000E+00  0.00000000E+00
  0.00000000E+00  0.00000000E+00  0.00000000E+00
  0.00000000E+00  0.00000000E+00  0.00000000E+00
  0.00000000E+00  0.00000000E+00  0.00000000E+00
  0.00000000E+00  0.00000000E+00  0.00000000E+00
  0.00000000E+00  0.00000000E+00  0.00000000E+00
