#12-C12/m1                              
   1.00000000057870     
     8.5457686450567749    0.0000000000000000    0.0020253719307511
     0.0000000000000000    4.6729161100872778    0.0000000000000000
    -2.8617758612705240    0.0000000000000000    6.6336266055026059
   Fe   Sc
    16     4
Direct
  0.0000000000000000  0.2500569237394217  0.0000000000000000
  0.0000000000000000  0.7499430762605783  0.0000000000000000
  0.5000000000000000  0.7500569237394217  0.0000000000000000
  0.5000000000000000  0.2499430762605783  0.0000000000000000
  0.2214650508584413  0.0000000000000000  0.9180652749069793
  0.7785349491415587  0.0000000000000000  0.0819347250930207
  0.7214650508584413  0.5000000000000000  0.9180652749069793
  0.2785349491415587  0.5000000000000000  0.0819347250930207
  0.0451346292569710  0.0000000000000000  0.3584599340381445
  0.9548653707430290  0.0000000000000000  0.6415400659618555
  0.5451346292569710  0.5000000000000000  0.3584599340381445
  0.4548653707430290  0.5000000000000000  0.6415400659618555
  0.6870271743811571  0.0000000000000000  0.3442909383458925
  0.3129728256188429  0.0000000000000000  0.6557090616541075
  0.1870271743811571  0.5000000000000000  0.3442909383458925
  0.8129728256188429  0.5000000000000000  0.6557090616541075
  0.3460713024091433  0.0000000000000000  0.2992623533888761
  0.6539286975908567  0.0000000000000000  0.7007376466111239
  0.8460713024091433  0.5000000000000000  0.2992623533888761
  0.1539286975908567  0.5000000000000000  0.7007376466111239
 
  0.00000000E+00  0.00000000E+00  0.00000000E+00
  0.00000000E+00  0.00000000E+00  0.00000000E+00
  0.00000000E+00  0.00000000E+00  0.00000000E+00
  0.00000000E+00  0.00000000E+00  0.00000000E+00
  0.00000000E+00  0.00000000E+00  0.00000000E+00
  0.00000000E+00  0.00000000E+00  0.00000000E+00
  0.00000000E+00  0.00000000E+00  0.00000000E+00
  0.00000000E+00  0.00000000E+00  0.00000000E+00
  0.00000000E+00  0.00000000E+00  0.00000000E+00
  0.00000000E+00  0.00000000E+00  0.00000000E+00
  0.00000000E+00  0.00000000E+00  0.00000000E+00
  0.00000000E+00  0.00000000E+00  0.00000000E+00
  0.00000000E+00  0.00000000E+00  0.00000000E+00
  0.00000000E+00  0.00000000E+00  0.00000000E+00
  0.00000000E+00  0.00000000E+00  0.00000000E+00
  0.00000000E+00  0.00000000E+00  0.00000000E+00
  0.00000000E+00  0.00000000E+00  0.00000000E+00
  0.00000000E+00  0.00000000E+00  0.00000000E+00
  0.00000000E+00  0.00000000E+00  0.00000000E+00
  0.00000000E+00  0.00000000E+00  0.00000000E+00
