#12-C12/m1                              
   1.00000000002828     
     8.0628060692432850    0.0000000000000000    0.0733375506148549
     0.0000000000000000    4.5757735244671265    0.0000000000000000
    -0.4307450552331177    0.0000000000000000    7.3537191602149488
   Fe   Sc
    16     4
Direct
  0.4934459094594033  0.0000000000000000  0.8273212297026120
  0.5065540905405967  0.0000000000000000  0.1726787702973880
  0.9934459094594033  0.5000000000000000  0.8273212297026120
  0.0065540905405967  0.5000000000000000  0.1726787702973880
  0.2500000000000000  0.2500000000000000  0.0000000000000000
  0.7500000000000000  0.2500000000000000  0.0000000000000000
  0.7500000000000000  0.7500000000000000  0.0000000000000000
  0.2500000000000000  0.7500000000000000  0.0000000000000000
  0.8492290803116092  0.0000000000000000  0.2814043625820304
  0.1507709196883908  0.0000000000000000  0.7185956374179696
  0.3492290803116092  0.5000000000000000  0.2814043625820304
  0.6507709196883908  0.5000000000000000  0.7185956374179696
  0.0000000000000000  0.0000000000000000  0.0000000000000000
  0.5000000000000000  0.5000000000000000  0.0000000000000000
  0.0000000000000000  0.5000000000000000  0.5000000000000000
  0.5000000000000000  0.0000000000000000  0.5000000000000000
  0.1769895741843044  0.0000000000000000  0.3463358327231134
  0.8230104258156956  0.0000000000000000  0.6536641672768866
  0.6769895741843044  0.5000000000000000  0.3463358327231134
  0.3230104258156956  0.5000000000000000  0.6536641672768866
 
  0.00000000E+00  0.00000000E+00  0.00000000E+00
  0.00000000E+00  0.00000000E+00  0.00000000E+00
  0.00000000E+00  0.00000000E+00  0.00000000E+00
  0.00000000E+00  0.00000000E+00  0.00000000E+00
  0.00000000E+00  0.00000000E+00  0.00000000E+00
  0.00000000E+00  0.00000000E+00  0.00000000E+00
  0.00000000E+00  0.00000000E+00  0.00000000E+00
  0.00000000E+00  0.00000000E+00  0.00000000E+00
  0.00000000E+00  0.00000000E+00  0.00000000E+00
  0.00000000E+00  0.00000000E+00  0.00000000E+00
  0.00000000E+00  0.00000000E+00  0.00000000E+00
  0.00000000E+00  0.00000000E+00  0.00000000E+00
  0.00000000E+00  0.00000000E+00  0.00000000E+00
  0.00000000E+00  0.00000000E+00  0.00000000E+00
  0.00000000E+00  0.00000000E+00  0.00000000E+00
  0.00000000E+00  0.00000000E+00  0.00000000E+00
  0.00000000E+00  0.00000000E+00  0.00000000E+00
  0.00000000E+00  0.00000000E+00  0.00000000E+00
  0.00000000E+00  0.00000000E+00  0.00000000E+00
  0.00000000E+00  0.00000000E+00  0.00000000E+00
