#12-C12/m1                              
  0.999999999572894     
    14.5095619238340010    0.0000000000000000    0.0893944847339233
     0.0000000000000000    3.9934624483697583    0.0000000000000000
    -0.1817082732572042    0.0000000000000000    4.6685987305991947
   Fe   Sc
    16     4
Direct
  0.8451738552956058  0.0000000000000000  0.2376058810852442
  0.1548261447043942  0.0000000000000000  0.7623941189147487
  0.3451738552956058  0.5000000000000000  0.2376058810852442
  0.6548261447043942  0.5000000000000000  0.7623941189147487
  0.0000000000000000  0.0000000000000000  0.5000000000000000
  0.5000000000000000  0.5000000000000000  0.5000000000000000
  0.2586199228500305  0.0000000000000000  0.2262510914351665
  0.7413800771499695  0.0000000000000000  0.7737489085648335
  0.7586199228500305  0.5000000000000000  0.2262510914351665
  0.2413800771499695  0.5000000000000000  0.7737489085648335
  0.5487241368945064  0.0000000000000000  0.7557174763820953
  0.4512758631054936  0.0000000000000000  0.2442825236179047
  0.0487241368945064  0.5000000000000000  0.7557174763820953
  0.9512758631054936  0.5000000000000000  0.2442825236179047
  0.0000000000000000  0.0000000000000000  0.0000000000000000
  0.5000000000000000  0.5000000000000000  0.0000000000000000
  0.3633382281798987  0.0000000000000000  0.7340845935821534
  0.6366617718201013  0.0000000000000000  0.2659154064178466
  0.8633382281798987  0.5000000000000000  0.7340845935821534
  0.1366617718201013  0.5000000000000000  0.2659154064178466
 
  0.00000000E+00  0.00000000E+00  0.00000000E+00
  0.00000000E+00  0.00000000E+00  0.00000000E+00
  0.00000000E+00  0.00000000E+00  0.00000000E+00
  0.00000000E+00  0.00000000E+00  0.00000000E+00
  0.00000000E+00  0.00000000E+00  0.00000000E+00
  0.00000000E+00  0.00000000E+00  0.00000000E+00
  0.00000000E+00  0.00000000E+00  0.00000000E+00
  0.00000000E+00  0.00000000E+00  0.00000000E+00
  0.00000000E+00  0.00000000E+00  0.00000000E+00
  0.00000000E+00  0.00000000E+00  0.00000000E+00
  0.00000000E+00  0.00000000E+00  0.00000000E+00
  0.00000000E+00  0.00000000E+00  0.00000000E+00
  0.00000000E+00  0.00000000E+00  0.00000000E+00
  0.00000000E+00  0.00000000E+00  0.00000000E+00
  0.00000000E+00  0.00000000E+00  0.00000000E+00
  0.00000000E+00  0.00000000E+00  0.00000000E+00
  0.00000000E+00  0.00000000E+00  0.00000000E+00
  0.00000000E+00  0.00000000E+00  0.00000000E+00
  0.00000000E+00  0.00000000E+00  0.00000000E+00
  0.00000000E+00  0.00000000E+00  0.00000000E+00
