#65-C2/m2/m2/m                          
  0.999999999982762     
    14.3205814637879598    0.0000000000000000    0.0000000000000000
     0.0000000000000000    4.6320895909384792    0.0000000000000000
     0.0000000000000000    0.0000000000000000    4.0068128244759373
   Fe   Sc
    16     4
Direct
  0.4085398201152231  0.0000000000000000  0.0000000000000000
  0.5914601798847769  0.0000000000000000  0.0000000000000000
  0.9085398201152231  0.5000000000000000  0.0000000000000000
  0.0914601798847769  0.5000000000000000  0.0000000000000000
  0.2500000000000000  0.2500000000000000  0.0000000000000000
  0.2500000000000000  0.7500000000000000  0.0000000000000000
  0.7500000000000000  0.2500000000000000  0.0000000000000000
  0.7500000000000000  0.7500000000000000  0.0000000000000000
  0.6997420364804938  0.0000000000000000  0.5000000000000000
  0.3002579635195062  0.0000000000000000  0.5000000000000000
  0.1997420364804938  0.5000000000000000  0.5000000000000000
  0.8002579635195062  0.5000000000000000  0.5000000000000000
  0.0000000000000000  0.0000000000000000  0.0000000000000000
  0.5000000000000000  0.5000000000000000  0.0000000000000000
  0.5000000000000000  0.0000000000000000  0.5000000000000000
  0.0000000000000000  0.5000000000000000  0.5000000000000000
  0.8863749622024812  0.0000000000000000  0.5000000000000000
  0.1136250377975188  0.0000000000000000  0.5000000000000000
  0.3863749622024812  0.5000000000000000  0.5000000000000000
  0.6136250377975188  0.5000000000000000  0.5000000000000000
 
  0.00000000E+00  0.00000000E+00  0.00000000E+00
  0.00000000E+00  0.00000000E+00  0.00000000E+00
  0.00000000E+00  0.00000000E+00  0.00000000E+00
  0.00000000E+00  0.00000000E+00  0.00000000E+00
  0.00000000E+00  0.00000000E+00  0.00000000E+00
  0.00000000E+00  0.00000000E+00  0.00000000E+00
  0.00000000E+00  0.00000000E+00  0.00000000E+00
  0.00000000E+00  0.00000000E+00  0.00000000E+00
  0.00000000E+00  0.00000000E+00  0.00000000E+00
  0.00000000E+00  0.00000000E+00  0.00000000E+00
  0.00000000E+00  0.00000000E+00  0.00000000E+00
  0.00000000E+00  0.00000000E+00  0.00000000E+00
  0.00000000E+00  0.00000000E+00  0.00000000E+00
  0.00000000E+00  0.00000000E+00  0.00000000E+00
  0.00000000E+00  0.00000000E+00  0.00000000E+00
  0.00000000E+00  0.00000000E+00  0.00000000E+00
  0.00000000E+00  0.00000000E+00  0.00000000E+00
  0.00000000E+00  0.00000000E+00  0.00000000E+00
  0.00000000E+00  0.00000000E+00  0.00000000E+00
  0.00000000E+00  0.00000000E+00  0.00000000E+00
