#11-P121/m1                             
  0.999999999201104     
     5.1917765309815262    0.0000000000000000   -0.0002446119256961
     0.0000000000000000    4.9239829871184533    0.0000000000000000
    -0.0742185594996345    0.0000000000000000    5.2365471326233246
   Fe   Sc
     8     2
Direct
  0.3397522789412477  0.0003507971993528  0.6621643436302804
  0.6602477210587523  0.5003507971993528  0.3378356563697196
  0.6602477210587523  0.9996492028006472  0.3378356563697196
  0.3397522789412477  0.4996492028006472  0.6621643436302804
  0.9444189115540951  0.2500000000000000  0.6175407748890080
  0.0555810884459049  0.7500000000000000  0.3824592251109920
  0.6171998105267349  0.2500000000000000  0.9474418088885130
  0.3828001894732651  0.7500000000000000  0.0525581911114870
  0.1456138758219581  0.2500000000000000  0.1469782408989033
  0.8543861241780419  0.7500000000000000  0.8530217591010967
 
  0.00000000E+00  0.00000000E+00  0.00000000E+00
  0.00000000E+00  0.00000000E+00  0.00000000E+00
  0.00000000E+00  0.00000000E+00  0.00000000E+00
  0.00000000E+00  0.00000000E+00  0.00000000E+00
  0.00000000E+00  0.00000000E+00  0.00000000E+00
  0.00000000E+00  0.00000000E+00  0.00000000E+00
  0.00000000E+00  0.00000000E+00  0.00000000E+00
  0.00000000E+00  0.00000000E+00  0.00000000E+00
  0.00000000E+00  0.00000000E+00  0.00000000E+00
  0.00000000E+00  0.00000000E+00  0.00000000E+00
