#139-I4/m2/m2/m                         
   1.00000000108821     
     2.9632854317014563    0.0000000000000000    0.0000000000000000
     0.0000000000000000    2.9632854317014563    0.0000000000000000
     0.0000000000000000    0.0000000000000000   14.4676625715122764
   Fe   Nb
     8     2
Direct
  0.0000000000000000  0.0000000000000000  0.6081301775592962
  0.0000000000000000  0.0000000000000000  0.3918698224407038
  0.5000000000000000  0.5000000000000000  0.1081301775592962
  0.5000000000000000  0.5000000000000000  0.8918698224407038
  0.0000000000000000  0.0000000000000000  0.7983048017649921
  0.0000000000000000  0.0000000000000000  0.2016951982350079
  0.5000000000000000  0.5000000000000000  0.2983048017649921
  0.5000000000000000  0.5000000000000000  0.7016951982350079
  0.0000000000000000  0.0000000000000000  0.0000000000000000
  0.5000000000000000  0.5000000000000000  0.5000000000000000
 
  0.00000000E+00  0.00000000E+00  0.00000000E+00
  0.00000000E+00  0.00000000E+00  0.00000000E+00
  0.00000000E+00  0.00000000E+00  0.00000000E+00
  0.00000000E+00  0.00000000E+00  0.00000000E+00
  0.00000000E+00  0.00000000E+00  0.00000000E+00
  0.00000000E+00  0.00000000E+00  0.00000000E+00
  0.00000000E+00  0.00000000E+00  0.00000000E+00
  0.00000000E+00  0.00000000E+00  0.00000000E+00
  0.00000000E+00  0.00000000E+00  0.00000000E+00
  0.00000000E+00  0.00000000E+00  0.00000000E+00
