#12-C12/m1                              
  0.999999999840579     
    12.1023943285459659    0.0000000000000000    0.0086516332304504
     0.0000000000000000    4.0882009156526875    0.0000000000000000
    -0.3418206721507645    0.0000000000000000    2.5574812403332472
   Fe   Nb
     8     2
Direct
  0.3927436671894711  0.0000000000000000  0.0758742181498206
  0.6072563328105289  0.0000000000000000  0.9241257818501794
  0.8927436671894711  0.5000000000000000  0.0758742181498206
  0.1072563328105289  0.5000000000000000  0.9241257818501794
  0.7950177409416099  0.0000000000000000  0.6979632556963011
  0.2049822590583901  0.0000000000000000  0.3020367443036989
  0.2950177409416099  0.5000000000000000  0.6979632556963011
  0.7049822590583901  0.5000000000000000  0.3020367443036989
  0.0000000000000000  0.0000000000000000  0.5000000000000000
  0.5000000000000000  0.5000000000000000  0.5000000000000000
 
  0.00000000E+00  0.00000000E+00  0.00000000E+00
  0.00000000E+00  0.00000000E+00  0.00000000E+00
  0.00000000E+00  0.00000000E+00  0.00000000E+00
  0.00000000E+00  0.00000000E+00  0.00000000E+00
  0.00000000E+00  0.00000000E+00  0.00000000E+00
  0.00000000E+00  0.00000000E+00  0.00000000E+00
  0.00000000E+00  0.00000000E+00  0.00000000E+00
  0.00000000E+00  0.00000000E+00  0.00000000E+00
  0.00000000E+00  0.00000000E+00  0.00000000E+00
  0.00000000E+00  0.00000000E+00  0.00000000E+00
