#166-R-32/m(hexagonalaxes)              
  0.999999999954644     
     4.1302085513482147    0.0000000000000000    0.0000000000000000
    -2.0651042756741074    3.5768655283952806    0.0000000000000000
     0.0000000000000000    0.0000000000000000   12.8061485937311055
   Fe   Nb
    12     3
Direct
  0.0000000000000000  0.0000000000000000  0.5955941094467789
  0.0000000000000000  0.0000000000000000  0.4044058905532140
  0.3333299999999966  0.6666700000000034  0.2622641094467753
  0.3333299999999966  0.6666700000000034  0.0710758905532245
  0.6666700000000034  0.3333299999999966  0.9289241094467826
  0.6666700000000034  0.3333299999999966  0.7377358905532247
  0.0000000000000000  0.0000000000000000  0.7980290644697305
  0.0000000000000000  0.0000000000000000  0.2019709355302695
  0.3333299999999966  0.6666700000000034  0.4646990644697269
  0.3333299999999966  0.6666700000000034  0.8686409355302729
  0.6666700000000034  0.3333299999999966  0.1313590644697271
  0.6666700000000034  0.3333299999999966  0.5353009355302731
  0.0000000000000000  0.0000000000000000  0.0000000000000000
  0.3333299999999966  0.6666700000000034  0.6666700000000034
  0.6666700000000034  0.3333299999999966  0.3333299999999966
 
  0.00000000E+00  0.00000000E+00  0.00000000E+00
  0.00000000E+00  0.00000000E+00  0.00000000E+00
  0.00000000E+00  0.00000000E+00  0.00000000E+00
  0.00000000E+00  0.00000000E+00  0.00000000E+00
  0.00000000E+00  0.00000000E+00  0.00000000E+00
  0.00000000E+00  0.00000000E+00  0.00000000E+00
  0.00000000E+00  0.00000000E+00  0.00000000E+00
  0.00000000E+00  0.00000000E+00  0.00000000E+00
  0.00000000E+00  0.00000000E+00  0.00000000E+00
  0.00000000E+00  0.00000000E+00  0.00000000E+00
  0.00000000E+00  0.00000000E+00  0.00000000E+00
  0.00000000E+00  0.00000000E+00  0.00000000E+00
  0.00000000E+00  0.00000000E+00  0.00000000E+00
  0.00000000E+00  0.00000000E+00  0.00000000E+00
  0.00000000E+00  0.00000000E+00  0.00000000E+00
