#87-I4/m                                
  0.999999998805558     
     6.4967520212195762    0.0000000042994446    0.0000000000000000
    -0.0000000042994446    6.4967520212195762    0.0000000000000000
     0.0000000000000000    0.0000000000000000    3.0017508372640305
   Fe   Nb
     8     2
Direct
  0.8100119525621636  0.3972639876091861  0.0000000000000000
  0.1899880474378364  0.6027360123908139  0.0000000000000000
  0.6027360123908139  0.8100119525621636  0.0000000000000000
  0.3972639876091861  0.1899880474378364  0.0000000000000000
  0.3100119525621636  0.8972639876091861  0.5000000000000000
  0.6899880474378364  0.1027360123908139  0.5000000000000000
  0.1027360123908139  0.3100119525621636  0.5000000000000000
  0.8972639876091861  0.6899880474378364  0.5000000000000000
  0.0000000000000000  0.0000000000000000  0.0000000000000000
  0.5000000000000000  0.5000000000000000  0.5000000000000000
 
  0.00000000E+00  0.00000000E+00  0.00000000E+00
  0.00000000E+00  0.00000000E+00  0.00000000E+00
  0.00000000E+00  0.00000000E+00  0.00000000E+00
  0.00000000E+00  0.00000000E+00  0.00000000E+00
  0.00000000E+00  0.00000000E+00  0.00000000E+00
  0.00000000E+00  0.00000000E+00  0.00000000E+00
  0.00000000E+00  0.00000000E+00  0.00000000E+00
  0.00000000E+00  0.00000000E+00  0.00000000E+00
  0.00000000E+00  0.00000000E+00  0.00000000E+00
  0.00000000E+00  0.00000000E+00  0.00000000E+00
