#225 (F m -3 m)                         
   5.90244001345964     
     0.4986031839851269    0.0000000000000000   -0.4986031839851269
    -0.0000000000000000    0.4986031839851269   -0.4986031839851269
     0.4986031839851269    0.4986031839851269    0.0000000000000000
   Fe   Ta
     3     1
Direct
  0.2500000000000000  0.2500000000000000  0.2500000000000000
  0.7500000000000000  0.7500000000000000  0.7500000000000000
  0.5000000000000000  0.5000000000000000  0.5000000000000000
  0.0000000000000000 -0.0000000000000000 -0.0000000000000000
 
  0.00000000E+00  0.00000000E+00  0.00000000E+00
  0.00000000E+00  0.00000000E+00  0.00000000E+00
  0.00000000E+00  0.00000000E+00  0.00000000E+00
  0.00000000E+00  0.00000000E+00  0.00000000E+00
