#71-I2/m2/m2/m                          
   1.00000000051386     
     3.0955151121874791    0.0000000000000000    0.0000000000000000
     0.0000000000000000    4.0571063714231803    0.0000000000000000
     0.0000000000000000    0.0000000000000000    8.2399595958111256
   Fe   Ta
     6     2
Direct
  0.0000000000000000  0.0000000000000000  0.7553762689639112
 -0.0000000000000000 -0.0000000000000000  0.2446237310360890
  0.5000000000000000  0.5000000000000000  0.2553762689639110
  0.5000000000000000  0.5000000000000000  0.7446237310360888
 -0.0000000000000000  0.5000000000000000  0.5000000000000000
  0.5000000000000000 -0.0000000000000000 -0.0000000000000000
  0.5000000000000000 -0.0000000000000000  0.5000000000000000
 -0.0000000000000000  0.5000000000000000 -0.0000000000000000
 
  0.00000000E+00  0.00000000E+00  0.00000000E+00
  0.00000000E+00  0.00000000E+00  0.00000000E+00
  0.00000000E+00  0.00000000E+00  0.00000000E+00
  0.00000000E+00  0.00000000E+00  0.00000000E+00
  0.00000000E+00  0.00000000E+00  0.00000000E+00
  0.00000000E+00  0.00000000E+00  0.00000000E+00
  0.00000000E+00  0.00000000E+00  0.00000000E+00
  0.00000000E+00  0.00000000E+00  0.00000000E+00
