#25 (P m m 2)                           
   3.60642000246420     
     0.9944737491438078    0.0000000000000000    0.0000000000000000
     0.0000000000000000    1.0220231850032524    0.0000000000000000
     0.0000000000000000    0.0000000000000000    2.1034174212834245
   Co   Fe   Ta
     2     4     2
Direct
  0.0000000000000000  0.5000000000000000  0.2425683588361522
  0.0000000000000000  0.0000000000000000  0.0001294547520843
  0.5000000000000000  0.5000000000000000  0.0004659579393689
  0.0000000000000000  0.5000000000000000  0.7520742152770410
  0.5000000000000000  0.5000000000000000  0.4960372627685175
  0.0000000000000000  0.0000000000000000  0.4964949620217354
  0.5000000000000000  0.0000000000000000  0.7564991551439633
  0.5000000000000000  0.0000000000000000  0.2386506332611233
 
  0.00000000E+00  0.00000000E+00  0.00000000E+00
  0.00000000E+00  0.00000000E+00  0.00000000E+00
  0.00000000E+00  0.00000000E+00  0.00000000E+00
  0.00000000E+00  0.00000000E+00  0.00000000E+00
  0.00000000E+00  0.00000000E+00  0.00000000E+00
  0.00000000E+00  0.00000000E+00  0.00000000E+00
  0.00000000E+00  0.00000000E+00  0.00000000E+00
  0.00000000E+00  0.00000000E+00  0.00000000E+00
