#2-P-1                                  
  0.999999999688733     
     4.3919736440357440   -0.0024857808309496    0.0003857559997689
     1.4817795037045802    5.5189212981169558   -0.0045016048515213
     0.0008231213972216    0.0016140880957650    6.7161489375250234
   Co   Ta
    12     2
Direct
  0.4179422416749171  0.6963167080640283  0.9248825923536781
  0.5820577583250828  0.3036832919359718  0.0751174076463218
 -0.0000000000000000  0.5000000000000000  0.0000000000000000
  0.1366381318702324  0.0826655366857481  0.1496932785958024
  0.8633618681297676  0.9173344633142519  0.8503067214041978
  0.4275455075436067  0.2246942448989455  0.4256527104887808
  0.5724544924563931  0.7753057551010546  0.5743472895112189
  0.8649355152461368  0.4138572055905209  0.3636708378400765
  0.1350644847538634  0.5861427944094791  0.6363291621599236
 -0.0000000000000000 -0.0000000000000000  0.5000000000000000
  0.7121133863907281  0.3687589773480910  0.7092839999389284
  0.2878866136092719  0.6312410226519092  0.2907160000610716
  0.7082628716444388  0.8580384472981244  0.2098184608282941
  0.2917371283555614  0.1419615527018756  0.7901815391717059
 
  0.00000000E+00  0.00000000E+00  0.00000000E+00
  0.00000000E+00  0.00000000E+00  0.00000000E+00
  0.00000000E+00  0.00000000E+00  0.00000000E+00
  0.00000000E+00  0.00000000E+00  0.00000000E+00
  0.00000000E+00  0.00000000E+00  0.00000000E+00
  0.00000000E+00  0.00000000E+00  0.00000000E+00
  0.00000000E+00  0.00000000E+00  0.00000000E+00
  0.00000000E+00  0.00000000E+00  0.00000000E+00
  0.00000000E+00  0.00000000E+00  0.00000000E+00
  0.00000000E+00  0.00000000E+00  0.00000000E+00
  0.00000000E+00  0.00000000E+00  0.00000000E+00
  0.00000000E+00  0.00000000E+00  0.00000000E+00
  0.00000000E+00  0.00000000E+00  0.00000000E+00
  0.00000000E+00  0.00000000E+00  0.00000000E+00
