#2-P-1                                  
  0.999999999194039     
     5.0756086738243233   -0.0006372199303184   -0.0025490405330629
    -1.2539351104925753    5.5504100398674554    0.0006031315808242
    -0.0223589453074026   -2.3381666850981722    5.7757504327368663
   Co   Ta
    12     2
Direct
  0.1410807372902032  0.5849498603760698  0.8643060958594685
  0.8589192627097968  0.4150501396239301  0.1356939041405315
  0.0000000000000000 -0.0000000000000000 -0.0000000000000000
  0.4247979148465854  0.6996268439358598  0.5811687185646242
  0.5752020851534146  0.3003731560641401  0.4188312814353759
  0.7872962552390342  0.1526462702134538  0.7259468801789463
  0.2127037447609657  0.8473537297865462  0.2740531198210536
  0.5000000000000000 -0.0000000000000000 -0.0000000000000000
  0.0736728556488687  0.2996784207988407  0.4220074017815347
  0.9263271443511314  0.7003215792011592  0.5779925982184652
  0.3481938820881882  0.4225486988236528  0.1466829343102866
  0.6518061179118119  0.5774513011763471  0.8533170656897134
  0.7157003053144471  0.8613996595407152  0.2987335486881439
  0.2842996946855529  0.1386003404592847  0.7012664513118563
 
  0.00000000E+00  0.00000000E+00  0.00000000E+00
  0.00000000E+00  0.00000000E+00  0.00000000E+00
  0.00000000E+00  0.00000000E+00  0.00000000E+00
  0.00000000E+00  0.00000000E+00  0.00000000E+00
  0.00000000E+00  0.00000000E+00  0.00000000E+00
  0.00000000E+00  0.00000000E+00  0.00000000E+00
  0.00000000E+00  0.00000000E+00  0.00000000E+00
  0.00000000E+00  0.00000000E+00  0.00000000E+00
  0.00000000E+00  0.00000000E+00  0.00000000E+00
  0.00000000E+00  0.00000000E+00  0.00000000E+00
  0.00000000E+00  0.00000000E+00  0.00000000E+00
  0.00000000E+00  0.00000000E+00  0.00000000E+00
  0.00000000E+00  0.00000000E+00  0.00000000E+00
  0.00000000E+00  0.00000000E+00  0.00000000E+00
