#10-P12/m1                              
   1.00000000007305     
     5.7062725052797729    0.0000000000000000    0.0034702092121971
     0.0000000000000000    3.5656664950305643    0.0000000000000000
    -1.1759007193583906    0.0000000000000000    7.9742411802558646
   Co   Ta
    12     2
Direct
  0.5000000000000000  0.5000000000000000  0.0000000000000000
  0.2008047367230187 -0.0000000000000000  0.0769195936586439
  0.7991952632769812  0.0000000000000000  0.9230804063413560
  0.0831855541029493  0.0000000000000000  0.3623092617955415
  0.9168144458970507  0.0000000000000000  0.6376907382044585
  0.3455781419521695  0.5000000000000000  0.2904062437411226
  0.6544218580478306  0.5000000000000000  0.7095937562588773
  0.2084750801375595  0.5000000000000000  0.5619510445025155
  0.7915249198624406  0.5000000000000000  0.4380489554974845
  0.5000000000000000  0.0000000000000000  0.5000000000000000
  0.9435974528011219  0.5000000000000000  0.1395878026717292
  0.0564025471988781  0.5000000000000000  0.8604121973282709
  0.3562322738476345  0.0000000000000000  0.7872783641215093
  0.6437677261523655  0.0000000000000000  0.2127216358784907
 
  0.00000000E+00  0.00000000E+00  0.00000000E+00
  0.00000000E+00  0.00000000E+00  0.00000000E+00
  0.00000000E+00  0.00000000E+00  0.00000000E+00
  0.00000000E+00  0.00000000E+00  0.00000000E+00
  0.00000000E+00  0.00000000E+00  0.00000000E+00
  0.00000000E+00  0.00000000E+00  0.00000000E+00
  0.00000000E+00  0.00000000E+00  0.00000000E+00
  0.00000000E+00  0.00000000E+00  0.00000000E+00
  0.00000000E+00  0.00000000E+00  0.00000000E+00
  0.00000000E+00  0.00000000E+00  0.00000000E+00
  0.00000000E+00  0.00000000E+00  0.00000000E+00
  0.00000000E+00  0.00000000E+00  0.00000000E+00
  0.00000000E+00  0.00000000E+00  0.00000000E+00
  0.00000000E+00  0.00000000E+00  0.00000000E+00
