#2-P-1                                  
  0.999999999455765     
     4.3966542870711534   -0.0033043765635532    0.0040849925431087
    -1.3577157126901926    4.8920287043194017   -0.0024086270361034
    -0.1003686576483955   -2.6543359280090133    7.6105769621263786
   Co   Ta
    12     2
Direct
  0.9253086219244440  0.7840589086270956  0.3674393568927972
  0.0746913780755560  0.2159410913729044  0.6325606431072028
  0.3415484227687411  0.5763579186529590  0.2309938167645557
  0.6584515772312588  0.4236420813470408  0.7690061832354443
  0.5000000000000000 -0.0000000000000000  0.5000000000000000
  0.6585055512504656  0.9192114454697661  0.7711225275578684
  0.3414944487495344  0.0807885545302338  0.2288774724421316
  0.8011255390549125  0.3582904452014709  0.0836872080749787
  0.1988744609450875  0.6417095547985291  0.9163127919250214
  0.5000000000000000  0.5000000000000000  0.5000000000000000
  0.9193048849094665  0.2935572714313757  0.3652067464809703
  0.0806951150905335  0.7064427285686243  0.6347932535190297
  0.2550480626237342  0.1638968780761269  0.9266849765199575
  0.7449519373762659  0.8361031219238730  0.0733150234800425
 
  0.00000000E+00  0.00000000E+00  0.00000000E+00
  0.00000000E+00  0.00000000E+00  0.00000000E+00
  0.00000000E+00  0.00000000E+00  0.00000000E+00
  0.00000000E+00  0.00000000E+00  0.00000000E+00
  0.00000000E+00  0.00000000E+00  0.00000000E+00
  0.00000000E+00  0.00000000E+00  0.00000000E+00
  0.00000000E+00  0.00000000E+00  0.00000000E+00
  0.00000000E+00  0.00000000E+00  0.00000000E+00
  0.00000000E+00  0.00000000E+00  0.00000000E+00
  0.00000000E+00  0.00000000E+00  0.00000000E+00
  0.00000000E+00  0.00000000E+00  0.00000000E+00
  0.00000000E+00  0.00000000E+00  0.00000000E+00
  0.00000000E+00  0.00000000E+00  0.00000000E+00
  0.00000000E+00  0.00000000E+00  0.00000000E+00
