#119-I-4m2                              
  0.999999999804810     
     4.5766321007836694    0.0000000000000000    0.0000000000000000
     0.0000000000000000    4.5766321007836694    0.0000000000000000
     0.0000000000000000   -0.0000000000000000   15.7866975911192426
   Co   Ta
    24     4
Direct
  0.7478606683621355  0.0000000000000000  0.5735336826205403
  0.2521393316378645  0.0000000000000000  0.5735336826205403
 -0.0000000000000000  0.2521393316378645  0.4264663173794598
 -0.0000000000000000  0.7478606683621355  0.4264663173794598
  0.2478606683621355  0.5000000000000000  0.0735336826205402
  0.7521393316378645  0.5000000000000000  0.0735336826205402
  0.5000000000000000  0.7521393316378645  0.9264663173794597
  0.5000000000000000  0.2478606683621355  0.9264663173794597
  0.7533309317899791  0.0000000000000000  0.3057121006553769
  0.2466690682100209  0.0000000000000000  0.3057121006553769
 -0.0000000000000000  0.2466690682100209  0.6942878993446231
 -0.0000000000000000  0.7533309317899791  0.6942878993446231
  0.2533309317899792  0.5000000000000000  0.8057121006553769
  0.7466690682100209  0.5000000000000000  0.8057121006553769
  0.5000000000000000  0.7466690682100209  0.1942878993446231
  0.5000000000000000  0.2533309317899792  0.1942878993446231
 -0.0000000000000000  0.5000000000000000  0.9313961972570909
  0.5000000000000000  0.0000000000000000  0.0686038027429090
  0.5000000000000000  0.0000000000000000  0.4313961972570910
 -0.0000000000000000  0.5000000000000000  0.5686038027429091
 -0.0000000000000000  0.0000000000000000  0.1587494002586372
 -0.0000000000000000  0.0000000000000000  0.8412505997413627
  0.5000000000000000  0.5000000000000000  0.6587494002586373
  0.5000000000000000  0.5000000000000000  0.3412505997413628
 -0.0000000000000000  0.0000000000000000  0.0000000000000000
  0.5000000000000000  0.5000000000000000  0.5000000000000000
 -0.0000000000000000  0.5000000000000000  0.2500000000000000
  0.5000000000000000  0.0000000000000000  0.7500000000000000
 
  0.00000000E+00  0.00000000E+00  0.00000000E+00
  0.00000000E+00  0.00000000E+00  0.00000000E+00
  0.00000000E+00  0.00000000E+00  0.00000000E+00
  0.00000000E+00  0.00000000E+00  0.00000000E+00
  0.00000000E+00  0.00000000E+00  0.00000000E+00
  0.00000000E+00  0.00000000E+00  0.00000000E+00
  0.00000000E+00  0.00000000E+00  0.00000000E+00
  0.00000000E+00  0.00000000E+00  0.00000000E+00
  0.00000000E+00  0.00000000E+00  0.00000000E+00
  0.00000000E+00  0.00000000E+00  0.00000000E+00
  0.00000000E+00  0.00000000E+00  0.00000000E+00
  0.00000000E+00  0.00000000E+00  0.00000000E+00
  0.00000000E+00  0.00000000E+00  0.00000000E+00
  0.00000000E+00  0.00000000E+00  0.00000000E+00
  0.00000000E+00  0.00000000E+00  0.00000000E+00
  0.00000000E+00  0.00000000E+00  0.00000000E+00
  0.00000000E+00  0.00000000E+00  0.00000000E+00
  0.00000000E+00  0.00000000E+00  0.00000000E+00
  0.00000000E+00  0.00000000E+00  0.00000000E+00
  0.00000000E+00  0.00000000E+00  0.00000000E+00
  0.00000000E+00  0.00000000E+00  0.00000000E+00
  0.00000000E+00  0.00000000E+00  0.00000000E+00
  0.00000000E+00  0.00000000E+00  0.00000000E+00
  0.00000000E+00  0.00000000E+00  0.00000000E+00
  0.00000000E+00  0.00000000E+00  0.00000000E+00
  0.00000000E+00  0.00000000E+00  0.00000000E+00
  0.00000000E+00  0.00000000E+00  0.00000000E+00
  0.00000000E+00  0.00000000E+00  0.00000000E+00
