#38-Amm2                                
   1.00000000027427     
     4.0660265992508604    0.0000000000000000    0.0000000000000000
     0.0000000000000000   17.9550438925192850    0.0000000000000000
     0.0000000000000000    0.0000000000000000    4.4355998363009705
   Co   Ta
    24     4
Direct
  0.5000000000000000  0.7870340623478558  0.9240990438885823
  0.5000000000000000  0.2129659376521444  0.9240990438885823
  0.5000000000000000  0.2870340623478556  0.4240990438885823
  0.5000000000000000  0.7129659376521442  0.4240990438885823
  0.5000000000000000 -0.0000000000000000  0.4299480719941668
  0.5000000000000000  0.5000000000000000  0.9299480719941668
 -0.0000000000000000 -0.0000000000000000  0.7464081434650043
 -0.0000000000000000  0.5000000000000000  0.2464081434650043
  0.0000000000000000  0.2781071866365560  0.7411932690972587
 -0.0000000000000000  0.7218928133634439  0.7411932690972587
  0.0000000000000000  0.7781071866365561  0.2411932690972588
 -0.0000000000000000  0.2218928133634440  0.2411932690972588
 -0.0000000000000000  0.5666273185205086  0.7485547230189593
  0.0000000000000000  0.4333726814794914  0.7485547230189593
 -0.0000000000000000  0.0666273185205086  0.2485547230189593
  0.0000000000000000  0.9333726814794914  0.2485547230189593
 -0.0000000000000000  0.1406543853111542  0.7900924614727056
  0.0000000000000000  0.8593456146888456  0.7900924614727056
 -0.0000000000000000  0.6406543853111544  0.2900924614726985
 -0.0000000000000000  0.3593456146888458  0.2900924614726985
  0.5000000000000000  0.9329349690202665  0.9241201362925202
  0.5000000000000000  0.0670650309797334  0.9241201362925202
  0.5000000000000000  0.4329349690202666  0.4241201362925204
  0.5000000000000000  0.5670650309797335  0.4241201362925204
  0.5000000000000000  0.3564386455298176  0.9243422585003809
  0.5000000000000000  0.6435613544701824  0.9243422585003809
  0.5000000000000000  0.8564386455298176  0.4243422585003809
  0.5000000000000000  0.1435613544701824  0.4243422585003809
 
  0.00000000E+00  0.00000000E+00  0.00000000E+00
  0.00000000E+00  0.00000000E+00  0.00000000E+00
  0.00000000E+00  0.00000000E+00  0.00000000E+00
  0.00000000E+00  0.00000000E+00  0.00000000E+00
  0.00000000E+00  0.00000000E+00  0.00000000E+00
  0.00000000E+00  0.00000000E+00  0.00000000E+00
  0.00000000E+00  0.00000000E+00  0.00000000E+00
  0.00000000E+00  0.00000000E+00  0.00000000E+00
  0.00000000E+00  0.00000000E+00  0.00000000E+00
  0.00000000E+00  0.00000000E+00  0.00000000E+00
  0.00000000E+00  0.00000000E+00  0.00000000E+00
  0.00000000E+00  0.00000000E+00  0.00000000E+00
  0.00000000E+00  0.00000000E+00  0.00000000E+00
  0.00000000E+00  0.00000000E+00  0.00000000E+00
  0.00000000E+00  0.00000000E+00  0.00000000E+00
  0.00000000E+00  0.00000000E+00  0.00000000E+00
  0.00000000E+00  0.00000000E+00  0.00000000E+00
  0.00000000E+00  0.00000000E+00  0.00000000E+00
  0.00000000E+00  0.00000000E+00  0.00000000E+00
  0.00000000E+00  0.00000000E+00  0.00000000E+00
  0.00000000E+00  0.00000000E+00  0.00000000E+00
  0.00000000E+00  0.00000000E+00  0.00000000E+00
  0.00000000E+00  0.00000000E+00  0.00000000E+00
  0.00000000E+00  0.00000000E+00  0.00000000E+00
  0.00000000E+00  0.00000000E+00  0.00000000E+00
  0.00000000E+00  0.00000000E+00  0.00000000E+00
  0.00000000E+00  0.00000000E+00  0.00000000E+00
  0.00000000E+00  0.00000000E+00  0.00000000E+00
