#2-P-1                                  
   1.00000000017211     
     4.4060746643547120    0.0012080234749542   -0.0027618907779611
     2.1780261088593562    4.3295637479040687    0.0016592765884553
    -0.0000899670527727    1.6529695000184377    8.5256633610530823
   Co   Ta
    12     2
Direct
  0.7790280557168741  0.7621037786320025  0.4664611124143945
  0.2209719442831259  0.2378962213679974  0.5335388875856056
  0.3815324041562981  0.9169843448929743  0.8299881220646381
  0.6184675958437018  0.0830156551070256  0.1700118779353619
  0.3577031002676046  0.6475218659671288  0.6155577834362700
  0.6422968997323953  0.3524781340328713  0.3844422165637301
  0.9327609671577554  0.4947810076015888  0.7560228561482616
  0.0672390328422446  0.5052189923984111  0.2439771438517383
  0.0544302889913049  0.2159992164199925  0.0270337326869188
  0.9455697110086950  0.7840007835800074  0.9729662673130811
  0.4807518989483863  0.3642091243156009  0.8970390717214987
  0.5192481010516136  0.6357908756843991  0.1029609282785012
  0.1967654349899962  0.9292120660008872  0.3247440910188037
  0.8032345650100039  0.0707879339991129  0.6752559089811961
 
  0.00000000E+00  0.00000000E+00  0.00000000E+00
  0.00000000E+00  0.00000000E+00  0.00000000E+00
  0.00000000E+00  0.00000000E+00  0.00000000E+00
  0.00000000E+00  0.00000000E+00  0.00000000E+00
  0.00000000E+00  0.00000000E+00  0.00000000E+00
  0.00000000E+00  0.00000000E+00  0.00000000E+00
  0.00000000E+00  0.00000000E+00  0.00000000E+00
  0.00000000E+00  0.00000000E+00  0.00000000E+00
  0.00000000E+00  0.00000000E+00  0.00000000E+00
  0.00000000E+00  0.00000000E+00  0.00000000E+00
  0.00000000E+00  0.00000000E+00  0.00000000E+00
  0.00000000E+00  0.00000000E+00  0.00000000E+00
  0.00000000E+00  0.00000000E+00  0.00000000E+00
  0.00000000E+00  0.00000000E+00  0.00000000E+00
