#12-C12/m1                              
   1.00000000030506     
    17.9632714378144378    0.0000000000000000    0.0218047532143501
     0.0000000000000000    3.5859915018424826    0.0000000000000000
    -0.7007493472757444    0.0000000000000000    5.0415317650605447
   Co   Ta
    24     4
Direct
  0.0000000000000000  0.5000000000000000 -0.0000000000000000
  0.5000000000000000  0.0000000000000000 -0.0000000000000000
  0.6469912174557206 -0.0000000000000000  0.0834910137327190
  0.3530087825442794  0.0000000000000000  0.9165089862672882
  0.1469912174557206  0.5000000000000000  0.0834910137327190
  0.8530087825442794  0.5000000000000000  0.9165089862672882
  0.0763130519191987  0.0000000000000000  0.2876890218765594
  0.9236869480808014 -0.0000000000000000  0.7123109781234407
  0.5763130519191986  0.5000000000000000  0.2876890218765594
  0.4236869480808013  0.5000000000000000  0.7123109781234407
  0.0000000000000000  0.5000000000000000  0.5000000000000000
  0.5000000000000000  0.0000000000000000  0.5000000000000000
  0.3524325216273263 -0.0000000000000000  0.4389142346154471
  0.6475674783726737 -0.0000000000000000  0.5610857653845529
  0.8524325216273263  0.5000000000000000  0.4389142346154471
  0.1475674783726737  0.5000000000000000  0.5610857653845529
  0.7857342299204879 -0.0000000000000000  0.6446460064447836
  0.2142657700795121 -0.0000000000000000  0.3553539935552164
  0.2857342299204879  0.5000000000000000  0.6446460064447836
  0.7142657700795121  0.5000000000000000  0.3553539935552164
  0.2179649672527698  0.0000000000000000  0.8600833966224968
  0.7820350327472302  0.0000000000000000  0.1399166033775033
  0.7179649672527698  0.5000000000000000  0.8600833966224968
  0.2820350327472302  0.5000000000000000  0.1399166033775033
  0.9297274901404030  0.0000000000000000  0.2160375498691973
  0.0702725098595972  0.0000000000000000  0.7839624501308027
  0.4297274901404028  0.5000000000000000  0.2160375498691973
  0.5702725098595970  0.5000000000000000  0.7839624501308027
 
  0.00000000E+00  0.00000000E+00  0.00000000E+00
  0.00000000E+00  0.00000000E+00  0.00000000E+00
  0.00000000E+00  0.00000000E+00  0.00000000E+00
  0.00000000E+00  0.00000000E+00  0.00000000E+00
  0.00000000E+00  0.00000000E+00  0.00000000E+00
  0.00000000E+00  0.00000000E+00  0.00000000E+00
  0.00000000E+00  0.00000000E+00  0.00000000E+00
  0.00000000E+00  0.00000000E+00  0.00000000E+00
  0.00000000E+00  0.00000000E+00  0.00000000E+00
  0.00000000E+00  0.00000000E+00  0.00000000E+00
  0.00000000E+00  0.00000000E+00  0.00000000E+00
  0.00000000E+00  0.00000000E+00  0.00000000E+00
  0.00000000E+00  0.00000000E+00  0.00000000E+00
  0.00000000E+00  0.00000000E+00  0.00000000E+00
  0.00000000E+00  0.00000000E+00  0.00000000E+00
  0.00000000E+00  0.00000000E+00  0.00000000E+00
  0.00000000E+00  0.00000000E+00  0.00000000E+00
  0.00000000E+00  0.00000000E+00  0.00000000E+00
  0.00000000E+00  0.00000000E+00  0.00000000E+00
  0.00000000E+00  0.00000000E+00  0.00000000E+00
  0.00000000E+00  0.00000000E+00  0.00000000E+00
  0.00000000E+00  0.00000000E+00  0.00000000E+00
  0.00000000E+00  0.00000000E+00  0.00000000E+00
  0.00000000E+00  0.00000000E+00  0.00000000E+00
  0.00000000E+00  0.00000000E+00  0.00000000E+00
  0.00000000E+00  0.00000000E+00  0.00000000E+00
  0.00000000E+00  0.00000000E+00  0.00000000E+00
  0.00000000E+00  0.00000000E+00  0.00000000E+00
