#12-C12/m1                              
   1.00000000030289     
    16.6427668357948555    0.0000000000000000    0.0081558169981700
     0.0000000000000000    3.9271354558026874    0.0000000000000000
    -0.7660475194851777    0.0000000000000000    4.9797958421721011
   Co   Ta
    24     4
Direct
  0.6463413590510199 -0.0000000000000000  0.0787498402747653
  0.3536586409489731 -0.0000000000000000  0.9212501597252347
  0.1463413590510269  0.5000000000000000  0.0787498402747653
  0.8536586409489801  0.5000000000000000  0.9212501597252347
  0.0000000000000000  0.5000000000000000 -0.0000000000000000
  0.5000000000000000 -0.0000000000000000 -0.0000000000000000
  0.7724462644038905  0.0000000000000000  0.8858324562985693
  0.2275537355961096 -0.0000000000000000  0.1141675437014308
  0.2724462644038904  0.5000000000000000  0.8858324562985693
  0.7275537355961095  0.5000000000000000  0.1141675437014308
  0.9160369792004727 -0.0000000000000000  0.7086246504071678
  0.0839630207995273  0.0000000000000000  0.2913753495928320
  0.4160369792004727  0.5000000000000000  0.7086246504071678
  0.5839630207995273  0.5000000000000000  0.2913753495928320
  0.6455684500580917 -0.0000000000000000  0.5640367810305391
  0.3544315499419083 -0.0000000000000000  0.4359632189694607
  0.1455684500580917  0.5000000000000000  0.5640367810305391
  0.8544315499419083  0.5000000000000000  0.4359632189694607
  0.0000000000000000  0.5000000000000000  0.5000000000000000
  0.5000000000000000 -0.0000000000000000  0.5000000000000000
  0.2246708827927364  0.0000000000000000  0.6116738360004215
  0.7753291172072636 -0.0000000000000000  0.3883261639995784
  0.7246708827927364  0.5000000000000000  0.6116738360004215
  0.2753291172072636  0.5000000000000000  0.3883261639995784
  0.9262616697515532 -0.0000000000000000  0.2125507689306586
  0.0737383302484467 -0.0000000000000000  0.7874492310693415
  0.4262616697515532  0.5000000000000000  0.2125507689306586
  0.5737383302484468  0.5000000000000000  0.7874492310693415
 
  0.00000000E+00  0.00000000E+00  0.00000000E+00
  0.00000000E+00  0.00000000E+00  0.00000000E+00
  0.00000000E+00  0.00000000E+00  0.00000000E+00
  0.00000000E+00  0.00000000E+00  0.00000000E+00
  0.00000000E+00  0.00000000E+00  0.00000000E+00
  0.00000000E+00  0.00000000E+00  0.00000000E+00
  0.00000000E+00  0.00000000E+00  0.00000000E+00
  0.00000000E+00  0.00000000E+00  0.00000000E+00
  0.00000000E+00  0.00000000E+00  0.00000000E+00
  0.00000000E+00  0.00000000E+00  0.00000000E+00
  0.00000000E+00  0.00000000E+00  0.00000000E+00
  0.00000000E+00  0.00000000E+00  0.00000000E+00
  0.00000000E+00  0.00000000E+00  0.00000000E+00
  0.00000000E+00  0.00000000E+00  0.00000000E+00
  0.00000000E+00  0.00000000E+00  0.00000000E+00
  0.00000000E+00  0.00000000E+00  0.00000000E+00
  0.00000000E+00  0.00000000E+00  0.00000000E+00
  0.00000000E+00  0.00000000E+00  0.00000000E+00
  0.00000000E+00  0.00000000E+00  0.00000000E+00
  0.00000000E+00  0.00000000E+00  0.00000000E+00
  0.00000000E+00  0.00000000E+00  0.00000000E+00
  0.00000000E+00  0.00000000E+00  0.00000000E+00
  0.00000000E+00  0.00000000E+00  0.00000000E+00
  0.00000000E+00  0.00000000E+00  0.00000000E+00
  0.00000000E+00  0.00000000E+00  0.00000000E+00
  0.00000000E+00  0.00000000E+00  0.00000000E+00
  0.00000000E+00  0.00000000E+00  0.00000000E+00
  0.00000000E+00  0.00000000E+00  0.00000000E+00
