#15-C12/c1                              
  0.999999999998975     
    11.2411442797907544    0.0000000000000000    0.0076908825144329
     0.0000000000000000    4.4294592148503362    0.0000000000000000
    -0.4297204760039186    0.0000000000000000    6.5143096967354781
   Co   Ta
    24     4
Direct
  0.1475294757469970  0.1779170140108763  0.9613702326725446
  0.8524705242530031  0.1779170140108763  0.5386297673274554
  0.8524705242530031  0.8220829859891237  0.0386297673274553
  0.1475294757469970  0.8220829859891237  0.4613702326725447
  0.6475294757469969  0.6779170140108763  0.9613702326725446
  0.3524705242530031  0.6779170140108763  0.5386297673274554
  0.3524705242530031  0.3220829859891237  0.0386297673274553
  0.6475294757469969  0.3220829859891237  0.4613702326725447
  0.9243551211249630  0.3397649712469848  0.8918645688448976
  0.0756448788750370  0.3397649712469848  0.6081354311551024
  0.0756448788750370  0.6602350287530152  0.1081354311551024
  0.9243551211249630  0.6602350287530152  0.3918645688448977
  0.4243551211249630  0.8397649712469848  0.8918645688448976
  0.5756448788750370  0.8397649712469848  0.6081354311551024
  0.5756448788750370  0.1602350287530152  0.1081354311551024
  0.4243551211249630  0.1602350287530152  0.3918645688448977
  0.7220246218912583  0.1622740569692037  0.8265970993619067
  0.2779753781087417  0.1622740569692037  0.6734029006380933
  0.2779753781087417  0.8377259430307963  0.1734029006380933
  0.7220246218912583  0.8377259430307963  0.3265970993619067
  0.2220246218912583  0.6622740569692037  0.8265970993619067
  0.7779753781087417  0.6622740569692037  0.6734029006380933
  0.7779753781087417  0.3377259430307963  0.1734029006380933
  0.2220246218912583  0.3377259430307963  0.3265970993619067
  0.0000000000000000  0.1573692027159865  0.2500000000000000
  0.0000000000000000  0.8426307972840135  0.7500000000000000
  0.5000000000000000  0.6573692027159865  0.2500000000000000
  0.5000000000000000  0.3426307972840135  0.7500000000000000
 
  0.00000000E+00  0.00000000E+00  0.00000000E+00
  0.00000000E+00  0.00000000E+00  0.00000000E+00
  0.00000000E+00  0.00000000E+00  0.00000000E+00
  0.00000000E+00  0.00000000E+00  0.00000000E+00
  0.00000000E+00  0.00000000E+00  0.00000000E+00
  0.00000000E+00  0.00000000E+00  0.00000000E+00
  0.00000000E+00  0.00000000E+00  0.00000000E+00
  0.00000000E+00  0.00000000E+00  0.00000000E+00
  0.00000000E+00  0.00000000E+00  0.00000000E+00
  0.00000000E+00  0.00000000E+00  0.00000000E+00
  0.00000000E+00  0.00000000E+00  0.00000000E+00
  0.00000000E+00  0.00000000E+00  0.00000000E+00
  0.00000000E+00  0.00000000E+00  0.00000000E+00
  0.00000000E+00  0.00000000E+00  0.00000000E+00
  0.00000000E+00  0.00000000E+00  0.00000000E+00
  0.00000000E+00  0.00000000E+00  0.00000000E+00
  0.00000000E+00  0.00000000E+00  0.00000000E+00
  0.00000000E+00  0.00000000E+00  0.00000000E+00
  0.00000000E+00  0.00000000E+00  0.00000000E+00
  0.00000000E+00  0.00000000E+00  0.00000000E+00
  0.00000000E+00  0.00000000E+00  0.00000000E+00
  0.00000000E+00  0.00000000E+00  0.00000000E+00
  0.00000000E+00  0.00000000E+00  0.00000000E+00
  0.00000000E+00  0.00000000E+00  0.00000000E+00
  0.00000000E+00  0.00000000E+00  0.00000000E+00
  0.00000000E+00  0.00000000E+00  0.00000000E+00
  0.00000000E+00  0.00000000E+00  0.00000000E+00
  0.00000000E+00  0.00000000E+00  0.00000000E+00
