#11-P121/m1                             
   1.00000000037008     
     6.7321560197520682    0.0000000000000000    0.0026374910872166
     0.0000000000000000    4.0757023514631099    0.0000000000000000
    -3.3045333077710781    0.0000000000000000    5.8898580560815894
   Co   Ta
    12     2
Direct
  0.3835986532180585  0.2500000000000000  0.8989198272954710
  0.6164013467819416  0.7500000000000000  0.1010801727045288
  0.1036890323159237  0.2500000000000000  0.4944268569615092
  0.8963109676840764  0.7500000000000000  0.5055731430384909
  0.6610117688430039  0.2500000000000000  0.3321641067773856
  0.3389882311569962  0.7500000000000000  0.6678358932226145
  0.2550346707278370  0.2500000000000000  0.2094215083447732
  0.7449653292721631  0.7500000000000000  0.7905784916552270
  0.9332548751284880  0.2500000000000000  0.7346441451531935
  0.0667451248715120  0.7500000000000000  0.2653558548468066
  0.5150660423000352  0.2500000000000000  0.6113279354081275
  0.4849339576999649  0.7500000000000000  0.3886720645918725
  0.8235090700388479  0.2500000000000000  0.0493913936533502
  0.1764909299611523  0.7500000000000000  0.9506086063466499
 
  0.00000000E+00  0.00000000E+00  0.00000000E+00
  0.00000000E+00  0.00000000E+00  0.00000000E+00
  0.00000000E+00  0.00000000E+00  0.00000000E+00
  0.00000000E+00  0.00000000E+00  0.00000000E+00
  0.00000000E+00  0.00000000E+00  0.00000000E+00
  0.00000000E+00  0.00000000E+00  0.00000000E+00
  0.00000000E+00  0.00000000E+00  0.00000000E+00
  0.00000000E+00  0.00000000E+00  0.00000000E+00
  0.00000000E+00  0.00000000E+00  0.00000000E+00
  0.00000000E+00  0.00000000E+00  0.00000000E+00
  0.00000000E+00  0.00000000E+00  0.00000000E+00
  0.00000000E+00  0.00000000E+00  0.00000000E+00
  0.00000000E+00  0.00000000E+00  0.00000000E+00
  0.00000000E+00  0.00000000E+00  0.00000000E+00
