#15-C12/c1                              
  0.999999999817308     
     4.4094274451805617    0.0000000000000000   -0.0018956723252688
     0.0000000000000000   17.8611357699731279    0.0000000000000000
    -1.4812603861398694    0.0000000000000000    4.1532260351758863
   Co   Ta
    24     4
Direct
 -0.0000000000000000  0.8979868483008545  0.2500000000000000
  0.0000000000000000  0.1020131516991455  0.7500000000000000
  0.5000000000000000  0.3979868483008545  0.2500000000000000
  0.5000000000000000  0.6020131516991455  0.7500000000000000
 -0.0000000000000000  0.6026926412269117  0.2500000000000000
  0.0000000000000000  0.3973073587730883  0.7500000000000000
  0.5000000000000000  0.1026926412269117  0.2500000000000000
  0.5000000000000000  0.8973073587730883  0.7500000000000000
 -0.0000000000000000  0.4681669628651514  0.2500000000000000
  0.0000000000000000  0.5318330371348486  0.7500000000000000
  0.5000000000000000  0.9681669628651514  0.2500000000000000
  0.5000000000000000  0.0318330371348486  0.7500000000000000
  0.0000000000000000  0.0351692019678488  0.2500000000000000
  0.0000000000000000  0.9648307980321512  0.7500000000000000
  0.5000000000000000  0.5351692019678488  0.2500000000000000
  0.5000000000000000  0.4648307980321512  0.7500000000000000
  0.0000000000000000  0.1709392307683997  0.2500000000000000
 -0.0000000000000000  0.8290607692316003  0.7500000000000000
  0.5000000000000000  0.6709392307683997  0.2500000000000000
  0.5000000000000000  0.3290607692316003  0.7500000000000000
 -0.0000000000000000  0.7503829789238560  0.2500000000000000
 -0.0000000000000000  0.2496170210761441  0.7500000000000000
  0.5000000000000000  0.2503829789238559  0.2500000000000000
  0.5000000000000000  0.7496170210761440  0.7500000000000000
 -0.0000000000000000  0.3183476644059466  0.2500000000000000
 -0.0000000000000000  0.6816523355940534  0.7500000000000000
  0.5000000000000000  0.8183476644059466  0.2500000000000000
  0.5000000000000000  0.1816523355940534  0.7500000000000000
 
  0.00000000E+00  0.00000000E+00  0.00000000E+00
  0.00000000E+00  0.00000000E+00  0.00000000E+00
  0.00000000E+00  0.00000000E+00  0.00000000E+00
  0.00000000E+00  0.00000000E+00  0.00000000E+00
  0.00000000E+00  0.00000000E+00  0.00000000E+00
  0.00000000E+00  0.00000000E+00  0.00000000E+00
  0.00000000E+00  0.00000000E+00  0.00000000E+00
  0.00000000E+00  0.00000000E+00  0.00000000E+00
  0.00000000E+00  0.00000000E+00  0.00000000E+00
  0.00000000E+00  0.00000000E+00  0.00000000E+00
  0.00000000E+00  0.00000000E+00  0.00000000E+00
  0.00000000E+00  0.00000000E+00  0.00000000E+00
  0.00000000E+00  0.00000000E+00  0.00000000E+00
  0.00000000E+00  0.00000000E+00  0.00000000E+00
  0.00000000E+00  0.00000000E+00  0.00000000E+00
  0.00000000E+00  0.00000000E+00  0.00000000E+00
  0.00000000E+00  0.00000000E+00  0.00000000E+00
  0.00000000E+00  0.00000000E+00  0.00000000E+00
  0.00000000E+00  0.00000000E+00  0.00000000E+00
  0.00000000E+00  0.00000000E+00  0.00000000E+00
  0.00000000E+00  0.00000000E+00  0.00000000E+00
  0.00000000E+00  0.00000000E+00  0.00000000E+00
  0.00000000E+00  0.00000000E+00  0.00000000E+00
  0.00000000E+00  0.00000000E+00  0.00000000E+00
  0.00000000E+00  0.00000000E+00  0.00000000E+00
  0.00000000E+00  0.00000000E+00  0.00000000E+00
  0.00000000E+00  0.00000000E+00  0.00000000E+00
  0.00000000E+00  0.00000000E+00  0.00000000E+00
