#12 (C 2/m) [unique axis c] cell choice 
   9.88319999307830     
     0.1706407005695083    0.0000000000000000   -0.5523234215320691
    -0.4995225811142734    0.1420084638586948    0.0000224020630841
     0.4995225811142734    0.1420084638586948   -0.0000224020630841
   Fe   N 
     6     1
Direct
  0.1043776317863193  0.1916759148179961  0.8083240851820038
  0.8956223682136807  0.8083240851820038  0.1916759148179961
  0.5715427594150705  0.1611955369320692  0.8388044630679308
  0.4284572405849295  0.8388044630679308  0.1611955369320692
  0.2437172017726196  0.4941847707364980  0.5058152292635020
  0.7562827982273804  0.5058152292635020  0.4941847707364980
 -0.0000000000000000 -0.0000000000000000  0.0000000000000000
 
  0.00000000E+00  0.00000000E+00  0.00000000E+00
  0.00000000E+00  0.00000000E+00  0.00000000E+00
  0.00000000E+00  0.00000000E+00  0.00000000E+00
  0.00000000E+00  0.00000000E+00  0.00000000E+00
  0.00000000E+00  0.00000000E+00  0.00000000E+00
  0.00000000E+00  0.00000000E+00  0.00000000E+00
  0.00000000E+00  0.00000000E+00  0.00000000E+00
