#2 (P -1)                               
   2.58371999644275     
     0.9979180483247577    0.0000536106571074   -0.0002170794669615
    -0.4338027245536582    1.9269830795303176    0.0003304708805491
    -0.3815937697014473   -0.4875462457844131    2.2878351978694047
   Fe   N 
     6     1
Direct
  0.1572757026296421  0.0793049423525142  0.3314012818878727
  0.8427242973703580  0.9206950576474857  0.6685987181121272
  0.6004704964591865  0.2786464516481773  0.0021930723618673
  0.3995295035408135  0.7213535483518225  0.9978069276381327
  0.8160613760725691  0.4101973035721669  0.6559716914803543
  0.1839386239274307  0.5898026964278331  0.3440283085196456
 -0.0000000000000000 -0.0000000000000000  0.0000000000000000
 
  0.00000000E+00  0.00000000E+00  0.00000000E+00
  0.00000000E+00  0.00000000E+00  0.00000000E+00
  0.00000000E+00  0.00000000E+00  0.00000000E+00
  0.00000000E+00  0.00000000E+00  0.00000000E+00
  0.00000000E+00  0.00000000E+00  0.00000000E+00
  0.00000000E+00  0.00000000E+00  0.00000000E+00
  0.00000000E+00  0.00000000E+00  0.00000000E+00
