#12 (C 2/m) [unique axis c] cell choice 
   8.62839000845157     
     0.2899658348479785    0.0000000000000000   -0.5194830294694515
    -0.4999545384380041    0.2292241251439144    0.0001455653072037
     0.4999545384380041    0.2292241251439144   -0.0001455653072037
   Fe   N 
     6     1
Direct
  0.0000000000000000  0.5000000000000000  0.5000000000000000
  0.6237213290466149  0.8124336573642792  0.1875663426357209
  0.3762786709533851  0.1875663426357209  0.8124336573642792
  0.1638781565467023  0.8383957443085984  0.1616042556914015
  0.8361218434532975  0.1616042556914015  0.8383957443085984
  0.5000000000000000  0.5000000000000000  0.5000000000000000
  0.0000000000000000 -0.0000000000000000  0.0000000000000000
 
  0.00000000E+00  0.00000000E+00  0.00000000E+00
  0.00000000E+00  0.00000000E+00  0.00000000E+00
  0.00000000E+00  0.00000000E+00  0.00000000E+00
  0.00000000E+00  0.00000000E+00  0.00000000E+00
  0.00000000E+00  0.00000000E+00  0.00000000E+00
  0.00000000E+00  0.00000000E+00  0.00000000E+00
  0.00000000E+00  0.00000000E+00  0.00000000E+00
