#65 (C m m m)                           
   3.93690000312407     
    -0.4996844315531153    1.2485929906699837    0.0000000000000000
    -0.4996844315531153   -1.2485929906699837    0.0000000000000000
     0.0000000000000000    0.0000000000000000    1.0025317165011398
   Fe   N 
     6     1
Direct
  0.5000000000000000  0.5000000000000000 -0.0000000000000000
  0.0000000000000000 -0.0000000000000000  0.5000000000000000
  0.1856127915829426  0.8143872084170575  0.0000000000000000
  0.8143872084170575  0.1856127915829426 -0.0000000000000000
  0.6675004201711444  0.3324995798288555  0.5000000000000000
  0.3324995798288555  0.6675004201711444  0.5000000000000000
  0.0000000000000000 -0.0000000000000000  0.0000000000000000
 
  0.00000000E+00  0.00000000E+00  0.00000000E+00
  0.00000000E+00  0.00000000E+00  0.00000000E+00
  0.00000000E+00  0.00000000E+00  0.00000000E+00
  0.00000000E+00  0.00000000E+00  0.00000000E+00
  0.00000000E+00  0.00000000E+00  0.00000000E+00
  0.00000000E+00  0.00000000E+00  0.00000000E+00
  0.00000000E+00  0.00000000E+00  0.00000000E+00
