#12 (C 2/m) [unique axis c] cell choice 
   4.30830999339444     
     0.1306651614666128    0.0000000000000000   -0.9849978088806800
    -0.4994368232363208    0.9659387835905995    0.0001670817933907
     0.4994368232363208    0.9659387835905995   -0.0001670817933907
   Fe   N 
     6     1
Direct
  0.7454833441779899  0.6051815404018054  0.0610549500052038
  0.2545166558220101  0.0610549500052038  0.6051815404018054
  0.2545166558220101  0.3948184595981946  0.9389450499947962
  0.7454833441779899  0.9389450499947962  0.3948184595981946
  0.2729569160258499  0.7037566537305512  0.2962433462694418
  0.7270430839741501  0.2962433462694418  0.7037566537305512
  0.0000000000000000 -0.0000000000000000  0.0000000000000000
 
  0.00000000E+00  0.00000000E+00  0.00000000E+00
  0.00000000E+00  0.00000000E+00  0.00000000E+00
  0.00000000E+00  0.00000000E+00  0.00000000E+00
  0.00000000E+00  0.00000000E+00  0.00000000E+00
  0.00000000E+00  0.00000000E+00  0.00000000E+00
  0.00000000E+00  0.00000000E+00  0.00000000E+00
  0.00000000E+00  0.00000000E+00  0.00000000E+00
