#12 (C 2/m) [unique axis c] cell choice 
   9.09143998186660     
     0.2507622859719923    0.0000000000000000   -0.6562587771582482
    -0.4988119361191465    0.1541733125373341   -0.0000945877566253
     0.4988119361191465    0.1541733125373341    0.0000945877566253
   Fe   N 
     6     1
Direct
  0.9178338245100166  0.3372925477020648  0.6627074522979352
  0.0821661754899832  0.6627074522979352  0.3372925477020648
  0.5852473978032422  0.6712149187977128  0.3287850812022873
  0.4147526021967579  0.3287850812022873  0.6712149187977128
  0.2848516015172842  0.9973001533674788  0.0026998466325211
  0.7151483984827159  0.0026998466325211  0.9973001533674788
 -0.0000000000000000 -0.0000000000000000 -0.0000000000000000
 
  0.00000000E+00  0.00000000E+00  0.00000000E+00
  0.00000000E+00  0.00000000E+00  0.00000000E+00
  0.00000000E+00  0.00000000E+00  0.00000000E+00
  0.00000000E+00  0.00000000E+00  0.00000000E+00
  0.00000000E+00  0.00000000E+00  0.00000000E+00
  0.00000000E+00  0.00000000E+00  0.00000000E+00
  0.00000000E+00  0.00000000E+00  0.00000000E+00
