#6 (P m) [unique axis c]                
   7.66939999372530     
    -0.9941533790989163    0.0000000000000000   -0.0075565254737353
     0.0967913876554005    0.0000000000000000   -0.6614090469251568
     0.0000000000000000   -0.5135798563189670    0.0000000000000000
   Fe   N 
    12     2
Direct
  0.3393690395867519  0.6623972459219746  0.5000000000000000
  0.8393670446865452  0.6623976717587451 -0.0000000000000000
  0.3149695250401749  0.1897458467339229  0.5000000000000000
  0.8149679162924960  0.1897457989515338  0.0000000000000000
  0.6606267014485830  0.3237525767272171  0.5000000000000000
  0.1606281112957045  0.3237529986097719 -0.0000000000000000
  0.6850091782060713  0.7964026096433637  0.5000000000000000
  0.1850101796594366  0.7964039863186716 -0.0000000000000000
 -0.0000256837240502  0.9931215339120725  0.5000000000000000
  0.4999748268765768  0.9931205598083009 -0.0000000000000000
 -0.0000345748496928  0.4931051757747790  0.5000000000000000
  0.4999661542480418  0.4931034004996033  0.0000000000000000
  0.5000111093867314  0.9931050195463028  0.5000000000000000
  0.0000104718466386  0.9931055757937154  0.0000000000000000
 
  0.00000000E+00  0.00000000E+00  0.00000000E+00
  0.00000000E+00  0.00000000E+00  0.00000000E+00
  0.00000000E+00  0.00000000E+00  0.00000000E+00
  0.00000000E+00  0.00000000E+00  0.00000000E+00
  0.00000000E+00  0.00000000E+00  0.00000000E+00
  0.00000000E+00  0.00000000E+00  0.00000000E+00
  0.00000000E+00  0.00000000E+00  0.00000000E+00
  0.00000000E+00  0.00000000E+00  0.00000000E+00
  0.00000000E+00  0.00000000E+00  0.00000000E+00
  0.00000000E+00  0.00000000E+00  0.00000000E+00
  0.00000000E+00  0.00000000E+00  0.00000000E+00
  0.00000000E+00  0.00000000E+00  0.00000000E+00
  0.00000000E+00  0.00000000E+00  0.00000000E+00
  0.00000000E+00  0.00000000E+00  0.00000000E+00
