#65 (C m m m)                           
   3.73184999558042     
    -0.5270368707485885    1.3172481573484023    0.0000000000000000
    -0.5270368707485885   -1.3172481573484023    0.0000000000000000
     0.0000000000000000    0.0000000000000000    1.0578526202797518
   Fe   N 
     6     1
Direct
  0.5000000000000000  0.5000000000000000  0.0000000000000000
 -0.0000000000000000  0.0000000000000000  0.5000000000000000
  0.1856120997371168  0.8143879002628830 -0.0000000000000000
  0.8143879002628830  0.1856120997371168 -0.0000000000000000
  0.6675285229966824  0.3324714770033175  0.5000000000000000
  0.3324714770033175  0.6675285229966824  0.5000000000000000
 -0.0000000000000000  0.0000000000000000 -0.0000000000000000
 
  0.00000000E+00  0.00000000E+00  0.00000000E+00
  0.00000000E+00  0.00000000E+00  0.00000000E+00
  0.00000000E+00  0.00000000E+00  0.00000000E+00
  0.00000000E+00  0.00000000E+00  0.00000000E+00
  0.00000000E+00  0.00000000E+00  0.00000000E+00
  0.00000000E+00  0.00000000E+00  0.00000000E+00
  0.00000000E+00  0.00000000E+00  0.00000000E+00
