#2 (P -1)                               
   4.25231999791635     
     0.9990843678825339   -0.0007211603914423    0.0003650596198285
    -0.4976967363836770    0.9943072904837702   -0.0000263803302060
    -0.3968567059672432   -0.3305586183622241    0.9982252170379042
   Fe   N 
     6     1
Direct
  0.1024781154241727  0.4124301688340575  0.2525033174547053
  0.8975218845758273  0.5875698311659425  0.7474966825452947
  0.7710934412581646  0.7517194768284795  0.2482617520278247
  0.2289065587418354  0.2482805231715205  0.7517382479721754
  0.4839801654184413  0.1002369419958275  0.2861295294625703
  0.5160198345815586  0.8997630580041726  0.7138704705374297
 -0.0000000000000000 -0.0000000000000000  0.0000000000000000
 
  0.00000000E+00  0.00000000E+00  0.00000000E+00
  0.00000000E+00  0.00000000E+00  0.00000000E+00
  0.00000000E+00  0.00000000E+00  0.00000000E+00
  0.00000000E+00  0.00000000E+00  0.00000000E+00
  0.00000000E+00  0.00000000E+00  0.00000000E+00
  0.00000000E+00  0.00000000E+00  0.00000000E+00
  0.00000000E+00  0.00000000E+00  0.00000000E+00
