#10 (P 2/m) [unique axis c]             
   4.24546999568515     
     0.3714278296157095    0.0000000000000000   -1.4991564400108326
    -1.0007473910931839    0.0000000000000000    0.0024784507235987
     0.0000000000000000    0.6635572481565765    0.0000000000000000
   Fe   N 
     6     1
Direct
  0.5000000000000000  0.5000000000000000  0.5000000000000000
  0.1748493188492122  0.8721527894015676  0.5000000000000000
  0.8251506811507878  0.1278472105984325  0.5000000000000000
  0.5000000000000000 -0.0000000000000000  0.0000000000000000
  0.1885427081243715  0.4007862803206065  0.0000000000000000
  0.8114572918756285  0.5992137196793934  0.0000000000000000
 -0.0000000000000000 -0.0000000000000000  0.0000000000000000
 
  0.00000000E+00  0.00000000E+00  0.00000000E+00
  0.00000000E+00  0.00000000E+00  0.00000000E+00
  0.00000000E+00  0.00000000E+00  0.00000000E+00
  0.00000000E+00  0.00000000E+00  0.00000000E+00
  0.00000000E+00  0.00000000E+00  0.00000000E+00
  0.00000000E+00  0.00000000E+00  0.00000000E+00
  0.00000000E+00  0.00000000E+00  0.00000000E+00
