#162 (P -3 1 m)                         
   4.48222999049521     
     1.0004257422471821    0.0000000000000000    0.0000000000000000
    -0.5002128711235910    0.8663937030858001   -0.0000000000000000
     0.0000000000000000    0.0000000000000000    0.9599650272756737
   Fe   N 
     6     1
Direct
  0.3423750677620030 -0.0000000000000000  0.2572355298426405
  0.0000000000000005  0.3423750677620042  0.2572355298426405
  0.6576249322379963  0.6576249322379958  0.2572355298426405
  0.3423750677620036  0.3423750677620042  0.7427644701573594
  0.6576249322379968  0.0000000000000000  0.7427644701573594
 -0.0000000000000005  0.6576249322379958  0.7427644701573594
 -0.0000000000000000 -0.0000000000000000 -0.0000000000000000
 
  0.00000000E+00  0.00000000E+00  0.00000000E+00
  0.00000000E+00  0.00000000E+00  0.00000000E+00
  0.00000000E+00  0.00000000E+00  0.00000000E+00
  0.00000000E+00  0.00000000E+00  0.00000000E+00
  0.00000000E+00  0.00000000E+00  0.00000000E+00
  0.00000000E+00  0.00000000E+00  0.00000000E+00
  0.00000000E+00  0.00000000E+00  0.00000000E+00
