#2 (P -1)                               
   4.78262999846667     
     0.9981221465956900    0.0000790771957523   -0.0011388323160270
    -0.0909488186080356    0.9929831004393797    0.0001130136342015
    -0.1772210074288090   -0.1962347136684928    1.3201033786248317
   Co   Fe   Ta
     1    10     1
Direct
  0.0000000000000000  0.0000000000000000  0.0000000000000000
  0.7517688178530312  0.4137937748643094  0.9174969517712880
  0.2482311821469688  0.5862062251356904  0.0825030482287120
  0.2469821411910214  0.2451785863912872  0.7574523182518541
  0.7530178588089785  0.7548214136087128  0.2425476817481459
  0.2423720337919802  0.9234104372383422  0.4150074500885817
  0.7576279662080198  0.0765895627616578  0.5849925499114182
  0.4951527535567176  0.1612751661588752  0.1593015070352132
  0.5048472464432824  0.8387248338411248  0.8406984929647870
  0.9895153485555315  0.3296078170193982  0.3264141290538909
  0.0104846514444685  0.6703921829806020  0.6735858709461091
  0.5000000000000000  0.5000000000000000  0.5000000000000000
 
  0.00000000E+00  0.00000000E+00  0.00000000E+00
  0.00000000E+00  0.00000000E+00  0.00000000E+00
  0.00000000E+00  0.00000000E+00  0.00000000E+00
  0.00000000E+00  0.00000000E+00  0.00000000E+00
  0.00000000E+00  0.00000000E+00  0.00000000E+00
  0.00000000E+00  0.00000000E+00  0.00000000E+00
  0.00000000E+00  0.00000000E+00  0.00000000E+00
  0.00000000E+00  0.00000000E+00  0.00000000E+00
  0.00000000E+00  0.00000000E+00  0.00000000E+00
  0.00000000E+00  0.00000000E+00  0.00000000E+00
  0.00000000E+00  0.00000000E+00  0.00000000E+00
  0.00000000E+00  0.00000000E+00  0.00000000E+00
