#6 (P m) [unique axis c]                
   4.79641999824761     
     0.2777474667374135    0.0000000000000000   -1.5387124194863477
    -0.9973818547442145    0.0000000000000000   -0.0003581931717167
     0.0000000000000000    0.8450491377372167    0.0000000000000000
   Co   Fe   Ta
     1    10     1
Direct
  0.0000649490154561  0.9998613485736410  0.0000000000000000
  0.8335537757946634  0.5057686529864183  0.0000000000000000
  0.4062671599964779  0.7454584968225290  0.5000000000000000
  0.3185241541227010  0.9954365446750522  0.0000000000000000
  0.9130685289923315  0.2494470036388822  0.5000000000000000
  0.7480912271595940  0.7370343843589489  0.5000000000000000
  0.0775277237688317  0.7481642236478511  0.5000000000000000
  0.4861011493647124  0.4898805725939724  0.0000000000000000
  0.5712528065872530  0.2573304120672961  0.5000000000000000
  0.1595032246480311  0.4952571213320816 -0.0000000000000000
  0.2413553644052302  0.2487204102095363  0.5000000000000000
  0.6595399361447050  0.9967808290937943 -0.0000000000000000
 
  0.00000000E+00  0.00000000E+00  0.00000000E+00
  0.00000000E+00  0.00000000E+00  0.00000000E+00
  0.00000000E+00  0.00000000E+00  0.00000000E+00
  0.00000000E+00  0.00000000E+00  0.00000000E+00
  0.00000000E+00  0.00000000E+00  0.00000000E+00
  0.00000000E+00  0.00000000E+00  0.00000000E+00
  0.00000000E+00  0.00000000E+00  0.00000000E+00
  0.00000000E+00  0.00000000E+00  0.00000000E+00
  0.00000000E+00  0.00000000E+00  0.00000000E+00
  0.00000000E+00  0.00000000E+00  0.00000000E+00
  0.00000000E+00  0.00000000E+00  0.00000000E+00
  0.00000000E+00  0.00000000E+00  0.00000000E+00
