#1 (P 1)                                
   4.78130000213457     
     0.9970099322144961    0.0000191713102516   -0.0004202099511818
    -0.0919433244488521    0.9943727490880511   -0.0011026654327201
    -0.1768900627767294   -0.1943565542088966    1.3210935364844922
   Co   Fe   Ta
     1    10     1
Direct
  0.9999011965879980  0.9998460021255589  0.9999403960486468
  0.5783988329800451  0.2489657449037185  0.0761251679718738
  0.7447888121816330  0.7444973690847981  0.2407146172675357
  0.0853417345202171  0.7382088105359458  0.5722921099163473
  0.8309799314044194  0.5078421724219722  0.8320432880169472
  0.9154229637370416  0.2497764394451645  0.4030904360431159
  0.2380221684359755  0.2549283578229409  0.7454120584463743
  0.4053178193923356  0.7442645207501130  0.9153705498099670
  0.4918790892349523  0.4861004630497652  0.4863900188765355
  0.1608573178320180  0.4953666556963203  0.1585103722042832
  0.3220298905420532  0.9941195162099176  0.3182644082737652
  0.6621602431513095  0.9960339479537914  0.6588165771245950
 
  0.00000000E+00  0.00000000E+00  0.00000000E+00
  0.00000000E+00  0.00000000E+00  0.00000000E+00
  0.00000000E+00  0.00000000E+00  0.00000000E+00
  0.00000000E+00  0.00000000E+00  0.00000000E+00
  0.00000000E+00  0.00000000E+00  0.00000000E+00
  0.00000000E+00  0.00000000E+00  0.00000000E+00
  0.00000000E+00  0.00000000E+00  0.00000000E+00
  0.00000000E+00  0.00000000E+00  0.00000000E+00
  0.00000000E+00  0.00000000E+00  0.00000000E+00
  0.00000000E+00  0.00000000E+00  0.00000000E+00
  0.00000000E+00  0.00000000E+00  0.00000000E+00
  0.00000000E+00  0.00000000E+00  0.00000000E+00
