#6 (P m) [unique axis c]                
   4.78855999729977     
     0.2756719090347878    0.0000000000000000   -1.5414851500966908
    -0.9989566211120910    0.0000000000000000    0.0012290547523473
     0.0000000000000000    0.8465472508885620    0.0000000000000000
   Co   Fe   Ta
     1    10     1
Direct
  0.9999263695723278  0.0000768543507164  0.0000000000000000
  0.6814342266699231  0.0044453634629000 -0.0000000000000000
  0.1664407687691979  0.4940196788004940 -0.0000000000000000
  0.0869611474647703  0.7504181227825260  0.5000000000000000
  0.7586824434027196  0.7512479640899911  0.5000000000000000
  0.2518875612276275  0.2627132710785602  0.5000000000000000
  0.9224882844691600  0.2518227170907059  0.5000000000000000
  0.5937036523865018  0.2543357809402391  0.5000000000000000
  0.5139386044514582  0.5098116894498542 -0.0000000000000000
  0.8405097922493819  0.5047155549357150  0.0000000000000000
  0.4288239606878549  0.7423803072433441  0.5000000000000000
  0.3404831886490814  0.0028926957749552  0.0000000000000000
 
  0.00000000E+00  0.00000000E+00  0.00000000E+00
  0.00000000E+00  0.00000000E+00  0.00000000E+00
  0.00000000E+00  0.00000000E+00  0.00000000E+00
  0.00000000E+00  0.00000000E+00  0.00000000E+00
  0.00000000E+00  0.00000000E+00  0.00000000E+00
  0.00000000E+00  0.00000000E+00  0.00000000E+00
  0.00000000E+00  0.00000000E+00  0.00000000E+00
  0.00000000E+00  0.00000000E+00  0.00000000E+00
  0.00000000E+00  0.00000000E+00  0.00000000E+00
  0.00000000E+00  0.00000000E+00  0.00000000E+00
  0.00000000E+00  0.00000000E+00  0.00000000E+00
  0.00000000E+00  0.00000000E+00  0.00000000E+00
