#8 (C m) [unique axis c] cell choice 1  
   12.2231399906998     
     0.0004370146962501    0.0000000000000000   -0.4720359986620797
    -0.4989793671931892    0.1660964171251876    0.0000189903644592
     0.4989793671931892    0.1660964171251876   -0.0000189903644592
   Co   Fe   Ta
     1    10     1
Direct
  0.0002656546195634  0.9999762125720650  0.0000237874279349
  0.5101699429275509  0.6587824123241482  0.3412175876758518
  0.7560115262488060  0.4957839811356340  0.5042160188643660
  0.2549400547305560  0.1611297050953732  0.8388702949046268
  0.5092372061372691  0.9995208516648395  0.0004791483351605
  0.2558368865232192  0.4974610385795569  0.5025389614204432
  0.0010490989474271  0.6593306907038752  0.3406693092961249
  0.9958990492088392  0.3293641123499609  0.6706358876500391
  0.7558658706404182  0.1628927950369395  0.8371072049630605
  0.5148152944157423  0.3295399093412364  0.6704600906587636
  0.7557068935020119  0.8293780310278180  0.1706219689721820
  0.2552725220985956  0.8292402601685644  0.1707597398314355
 
  0.00000000E+00  0.00000000E+00  0.00000000E+00
  0.00000000E+00  0.00000000E+00  0.00000000E+00
  0.00000000E+00  0.00000000E+00  0.00000000E+00
  0.00000000E+00  0.00000000E+00  0.00000000E+00
  0.00000000E+00  0.00000000E+00  0.00000000E+00
  0.00000000E+00  0.00000000E+00  0.00000000E+00
  0.00000000E+00  0.00000000E+00  0.00000000E+00
  0.00000000E+00  0.00000000E+00  0.00000000E+00
  0.00000000E+00  0.00000000E+00  0.00000000E+00
  0.00000000E+00  0.00000000E+00  0.00000000E+00
  0.00000000E+00  0.00000000E+00  0.00000000E+00
  0.00000000E+00  0.00000000E+00  0.00000000E+00
