#10 (P 2/m) [unique axis c]             
   4.78664999939110     
     0.2745564589522547    0.0000000000000000   -1.5416810264080889
    -0.9989863848781857    0.0000000000000000    0.0010234540495306
     0.0000000000000000    0.8469539187302394    0.0000000000000000
   Co   Fe   Ta
     1    10     1
Direct
  0.0000000000000000  0.0000000000000000 -0.0000000000000000
  0.6750122955296216  0.0074869842892137 -0.0000000000000000
  0.3249877044703784  0.9925130157107863 -0.0000000000000000
  0.8405067667755435  0.5046994476606130 -0.0000000000000000
  0.1594932332244566  0.4953005523393871 -0.0000000000000000
  0.4107317262806547  0.7603235618301817  0.5000000000000000
  0.5892682737193453  0.2396764381698183  0.5000000000000000
  0.2476023249516053  0.2496360806247376  0.5000000000000000
  0.7523976750483947  0.7503639193752625  0.5000000000000000
  0.9194636735202997  0.2488188267677405  0.5000000000000000
  0.0805363264797003  0.7511811732322595  0.5000000000000000
  0.5000000000000000  0.5000000000000000 -0.0000000000000000
 
  0.00000000E+00  0.00000000E+00  0.00000000E+00
  0.00000000E+00  0.00000000E+00  0.00000000E+00
  0.00000000E+00  0.00000000E+00  0.00000000E+00
  0.00000000E+00  0.00000000E+00  0.00000000E+00
  0.00000000E+00  0.00000000E+00  0.00000000E+00
  0.00000000E+00  0.00000000E+00  0.00000000E+00
  0.00000000E+00  0.00000000E+00  0.00000000E+00
  0.00000000E+00  0.00000000E+00  0.00000000E+00
  0.00000000E+00  0.00000000E+00  0.00000000E+00
  0.00000000E+00  0.00000000E+00  0.00000000E+00
  0.00000000E+00  0.00000000E+00  0.00000000E+00
  0.00000000E+00  0.00000000E+00  0.00000000E+00
