#6 (P m) [unique axis c]                
   5.00901999676624     
     0.0026806428686036    0.0000000000000000   -1.4092258738289762
    -0.9960511675741418    0.0000000000000000   -0.0002371418988583
     0.0000000000000000    0.8097611438658181    0.0000000000000000
   Co   Fe   Ta
     1    10     1
Direct
  0.9999854189012285  0.9999792288029747 -0.0000000000000000
  0.6771750262050229  0.8314555857983617  0.0000000000000000
  0.6815966997838698  0.3379297147002544 -0.0000000000000000
  0.5112038756282122  0.5009177200913405  0.5000000000000000
  0.1708928206431787  0.8353436109134780  0.5000000000000000
  0.1664134369143815  0.3465871121016899  0.5000000000000000
  0.0049227874639665  0.5068816444846163 -0.0000000000000000
  0.8418413225097950  0.1687179860093083  0.5000000000000000
  0.3410366576223110  0.6686841485445527 -0.0000000000000000
  0.5155737170518774  0.9915673842958880  0.5000000000000000
  0.8409345493089766  0.6679216813382223  0.5000000000000000
  0.3411836879671640  0.1689241829193260 -0.0000000000000000
 
  0.00000000E+00  0.00000000E+00  0.00000000E+00
  0.00000000E+00  0.00000000E+00  0.00000000E+00
  0.00000000E+00  0.00000000E+00  0.00000000E+00
  0.00000000E+00  0.00000000E+00  0.00000000E+00
  0.00000000E+00  0.00000000E+00  0.00000000E+00
  0.00000000E+00  0.00000000E+00  0.00000000E+00
  0.00000000E+00  0.00000000E+00  0.00000000E+00
  0.00000000E+00  0.00000000E+00  0.00000000E+00
  0.00000000E+00  0.00000000E+00  0.00000000E+00
  0.00000000E+00  0.00000000E+00  0.00000000E+00
  0.00000000E+00  0.00000000E+00  0.00000000E+00
  0.00000000E+00  0.00000000E+00  0.00000000E+00
