#12 (C 2/m) [unique axis c] cell choice 
   8.67510000393596     
     0.3341420595024926    0.0000000000000000   -0.9419689687362742
    -0.4979814242960400    0.2337906171988040    0.0008014432582683
     0.4979814242960400    0.2337906171988040   -0.0008014432582683
   Co   Fe   Ta
     1    10     1
Direct
  0.0000000000000000  0.0000000000000000 -0.0000000000000000
  0.0816254530009966  0.7517746064249137  0.2482253935750865
  0.9183745469990033  0.2482253935750865  0.7517746064249137
  0.6759591912267566  0.9978415966623739  0.0021584033376261
  0.3240408087732434  0.0021584033376261  0.9978415966623739
  0.7586757776174278  0.7528432790725009  0.2471567209274991
  0.2413242223825723  0.2471567209274991  0.7528432790725009
  0.8379806638895589  0.4991809486372136  0.5008190513627864
  0.1620193361104409  0.5008190513627864  0.4991809486372136
  0.4112049513588006  0.7532497772880723  0.2467502227119350
  0.5887950486411995  0.2467502227119350  0.7532497772880723
  0.5000000000000000  0.5000000000000000  0.5000000000000000
 
  0.00000000E+00  0.00000000E+00  0.00000000E+00
  0.00000000E+00  0.00000000E+00  0.00000000E+00
  0.00000000E+00  0.00000000E+00  0.00000000E+00
  0.00000000E+00  0.00000000E+00  0.00000000E+00
  0.00000000E+00  0.00000000E+00  0.00000000E+00
  0.00000000E+00  0.00000000E+00  0.00000000E+00
  0.00000000E+00  0.00000000E+00  0.00000000E+00
  0.00000000E+00  0.00000000E+00  0.00000000E+00
  0.00000000E+00  0.00000000E+00  0.00000000E+00
  0.00000000E+00  0.00000000E+00  0.00000000E+00
  0.00000000E+00  0.00000000E+00  0.00000000E+00
  0.00000000E+00  0.00000000E+00  0.00000000E+00
