#1 (P 1)                                
   4.77025000415776     
     0.9997239399192337   -0.0002329823105876   -0.0004051119892786
    -0.0918444667711671    0.9977549684658954   -0.0014104505398225
    -0.1796048656657328   -0.1937294430899960    1.3220336816018590
   Co   Fe   Ta
     1    10     1
Direct
  0.0000734474334770 -0.0001511423969589  0.0000728137656139
  0.8314536684651951  0.5082152553202038  0.8330147773349968
  0.6710954052045748  0.0101418969077174  0.6739490997741571
  0.5941287451356146  0.2526987207934427  0.0870233743026610
  0.4228590631423536  0.7624497299139879  0.9166113873718140
  0.2542599636370813  0.2583025535969983  0.7563376042554946
  0.3383275956717515  0.0217946319499631  0.3453755086018291
  0.5079045076254167  0.5130090260943023  0.5130502141868870
  0.7450887892596648  0.7686587667416668  0.2584437153212936
  0.9148882990656430  0.2585815929871499  0.4298875482432267
  0.0859812877602614  0.7618523188521751  0.5898850143826061
  0.1688492275989628  0.5103466492393457  0.1729089424594136
 
  0.00000000E+00  0.00000000E+00  0.00000000E+00
  0.00000000E+00  0.00000000E+00  0.00000000E+00
  0.00000000E+00  0.00000000E+00  0.00000000E+00
  0.00000000E+00  0.00000000E+00  0.00000000E+00
  0.00000000E+00  0.00000000E+00  0.00000000E+00
  0.00000000E+00  0.00000000E+00  0.00000000E+00
  0.00000000E+00  0.00000000E+00  0.00000000E+00
  0.00000000E+00  0.00000000E+00  0.00000000E+00
  0.00000000E+00  0.00000000E+00  0.00000000E+00
  0.00000000E+00  0.00000000E+00  0.00000000E+00
  0.00000000E+00  0.00000000E+00  0.00000000E+00
  0.00000000E+00  0.00000000E+00  0.00000000E+00
