#8 (C m) [unique axis c] cell choice 1  
   8.71656999296118     
     0.3332731419145988    0.0000000000000000   -0.9299712618419135
    -0.4987790750214650    0.2329728431352232   -0.0001965155042291
     0.4987790750214650    0.2329728431352232    0.0001965155042291
   Co   Fe   Ta
     1    10     1
Direct
  0.9998916027867356  0.0000738103237120 -0.0000738103237119
  0.4863857970343929  0.8295026568688509  0.1704973431311490
  0.2416913246246419  0.9127147503437721  0.0872852496562279
  0.2423636486291921  0.2452383924370534  0.7547616075629464
  0.4895463862490618  0.1610510684249399  0.8389489315750602
  0.9963833455599637  0.3306291527913827  0.6693708472086173
  0.4870160293229441  0.4906682761182423  0.5093317238817577
  0.7420233360411747  0.4165702676562653  0.5834297323437347
  0.9995222771137127  0.6603304009441541  0.3396695990558460
  0.7444716902608202  0.0745742634454616  0.9254257365545383
  0.2438240759558251  0.5787776125814879  0.4212223874185120
  0.7423904864215256  0.7456293480646778  0.2543706519353222
 
  0.00000000E+00  0.00000000E+00  0.00000000E+00
  0.00000000E+00  0.00000000E+00  0.00000000E+00
  0.00000000E+00  0.00000000E+00  0.00000000E+00
  0.00000000E+00  0.00000000E+00  0.00000000E+00
  0.00000000E+00  0.00000000E+00  0.00000000E+00
  0.00000000E+00  0.00000000E+00  0.00000000E+00
  0.00000000E+00  0.00000000E+00  0.00000000E+00
  0.00000000E+00  0.00000000E+00  0.00000000E+00
  0.00000000E+00  0.00000000E+00  0.00000000E+00
  0.00000000E+00  0.00000000E+00  0.00000000E+00
  0.00000000E+00  0.00000000E+00  0.00000000E+00
  0.00000000E+00  0.00000000E+00  0.00000000E+00
