#2 (P -1)                               
   4.78061000142043     
     0.9987110086348245   -0.0007760970643484   -0.0003092284652395
    -0.0902756669973702    0.9933604291462199    0.0005821194799736
    -0.1785304944583061   -0.1964363959184496    1.3202996651521013
   Co   Fe   Ta
     1    10     1
Direct
  0.0000000000000000  0.0000000000000000 -0.0000000000000000
  0.0105105307938183  0.6702549126318089  0.6735483961436287
  0.9894894692061816  0.3297450873681912  0.3264516038563713
  0.4951958012677977  0.1613953701308939  0.1592805214078989
  0.5048041987322022  0.8386046298691062  0.8407194785921011
  0.2423428687023465  0.9234122346802122  0.4148997951921171
  0.7576571312976536  0.0765877653197879  0.5851002048078827
  0.2482048655171213  0.5861208976666927  0.0824415695999024
  0.7517951344828787  0.4138791023333073  0.9175584304000978
  0.2469939583758886  0.2450480762314476  0.7573919118149568
  0.7530060416241111  0.7549519237685524  0.2426080881850431
  0.5000000000000000  0.5000000000000000  0.5000000000000000
 
  0.00000000E+00  0.00000000E+00  0.00000000E+00
  0.00000000E+00  0.00000000E+00  0.00000000E+00
  0.00000000E+00  0.00000000E+00  0.00000000E+00
  0.00000000E+00  0.00000000E+00  0.00000000E+00
  0.00000000E+00  0.00000000E+00  0.00000000E+00
  0.00000000E+00  0.00000000E+00  0.00000000E+00
  0.00000000E+00  0.00000000E+00  0.00000000E+00
  0.00000000E+00  0.00000000E+00  0.00000000E+00
  0.00000000E+00  0.00000000E+00  0.00000000E+00
  0.00000000E+00  0.00000000E+00  0.00000000E+00
  0.00000000E+00  0.00000000E+00  0.00000000E+00
  0.00000000E+00  0.00000000E+00  0.00000000E+00
