#107-I4mm                               
  0.999999999937245     
     4.0598238144814385    0.0000000000000000    0.0000000000000000
     0.0000000000000000    4.0598238144814385   -0.0000000000000000
     0.0000000000000000    0.0000000000000000   17.3997497069173974
   Co   Fe   Ta
     2    20     2
Direct
  0.0000000000000000 -0.0000000000000000  0.9037991468003379
  0.5000000000000000  0.5000000000000000  0.4037991468003379
  0.0000000000000000  0.0000000000000000  0.4048410695016225
  0.5000000000000000  0.5000000000000000  0.9048410695016226
  0.0000000000000000  0.5000000000000000  0.3235525000650572
  0.5000000000000000  0.0000000000000000  0.3235525000650572
  0.5000000000000000 -0.0000000000000000  0.8235525000650571
 -0.0000000000000000  0.5000000000000000  0.8235525000650571
 -0.0000000000000000  0.5000000000000000  0.9844173829487888
  0.5000000000000000  0.0000000000000000  0.9844173829487888
  0.5000000000000000 -0.0000000000000000  0.4844173829487888
  0.0000000000000000  0.5000000000000000  0.4844173829487888
 -0.0000000000000000  0.5000000000000000  0.1606998423682755
  0.5000000000000000 -0.0000000000000000  0.1606998423682755
  0.5000000000000000 -0.0000000000000000  0.6606998423682755
  0.0000000000000000  0.5000000000000000  0.6606998423682755
 -0.0000000000000000  0.0000000000000000  0.2421398343138588
  0.5000000000000000  0.5000000000000000  0.7421398343138588
  0.0000000000000000  0.0000000000000000  0.7407827639998955
  0.5000000000000000  0.5000000000000000  0.2407827639998956
  0.0000000000000000  0.0000000000000000  0.5728654613368027
  0.5000000000000000  0.5000000000000000  0.0728654613368027
  0.0000000000000000  0.0000000000000000  0.0737322732832347
  0.5000000000000000  0.5000000000000000  0.5737322732832346
 
  0.00000000E+00  0.00000000E+00  0.00000000E+00
  0.00000000E+00  0.00000000E+00  0.00000000E+00
  0.00000000E+00  0.00000000E+00  0.00000000E+00
  0.00000000E+00  0.00000000E+00  0.00000000E+00
  0.00000000E+00  0.00000000E+00  0.00000000E+00
  0.00000000E+00  0.00000000E+00  0.00000000E+00
  0.00000000E+00  0.00000000E+00  0.00000000E+00
  0.00000000E+00  0.00000000E+00  0.00000000E+00
  0.00000000E+00  0.00000000E+00  0.00000000E+00
  0.00000000E+00  0.00000000E+00  0.00000000E+00
  0.00000000E+00  0.00000000E+00  0.00000000E+00
  0.00000000E+00  0.00000000E+00  0.00000000E+00
  0.00000000E+00  0.00000000E+00  0.00000000E+00
  0.00000000E+00  0.00000000E+00  0.00000000E+00
  0.00000000E+00  0.00000000E+00  0.00000000E+00
  0.00000000E+00  0.00000000E+00  0.00000000E+00
  0.00000000E+00  0.00000000E+00  0.00000000E+00
  0.00000000E+00  0.00000000E+00  0.00000000E+00
  0.00000000E+00  0.00000000E+00  0.00000000E+00
  0.00000000E+00  0.00000000E+00  0.00000000E+00
  0.00000000E+00  0.00000000E+00  0.00000000E+00
  0.00000000E+00  0.00000000E+00  0.00000000E+00
  0.00000000E+00  0.00000000E+00  0.00000000E+00
  0.00000000E+00  0.00000000E+00  0.00000000E+00
