#8 (C m) [unique axis c] cell choice 1  
   12.2172000045554     
     0.3327048816813017    0.0000000000000000   -0.4712607230035968
    -0.4992404829096241    0.1662984552148616   -0.0003724566765865
     0.4992404829096241    0.1662984552148616    0.0003724566765865
   Co   Fe   Ta
     1    10     1
Direct
  0.9998446004319307  0.9999318910024523  0.0000681089975478
  0.4861068606487108  0.1582985619781603  0.8417014380218396
  0.7457014967601739  0.4125973900024748  0.5874026099975252
  0.0007078789972652  0.6598341849582930  0.3401658150417141
  0.2478503332288221  0.9122506895719885  0.0877493104280114
  0.4928513653572213  0.4900647848794903  0.5099352151205098
  0.7468429053153326  0.0771208498973883  0.9228791501026117
  0.2434552973165707  0.5769715099013087  0.4230284900986912
  0.0069602081876481  0.3314531977632254  0.6685468022367747
  0.2462714158020316  0.2448248340713541  0.7551751659286459
  0.4912136814781688  0.8297915328899326  0.1702084671100673
  0.7458839564761189  0.7446105730839399  0.2553894269160601
 
  0.00000000E+00  0.00000000E+00  0.00000000E+00
  0.00000000E+00  0.00000000E+00  0.00000000E+00
  0.00000000E+00  0.00000000E+00  0.00000000E+00
  0.00000000E+00  0.00000000E+00  0.00000000E+00
  0.00000000E+00  0.00000000E+00  0.00000000E+00
  0.00000000E+00  0.00000000E+00  0.00000000E+00
  0.00000000E+00  0.00000000E+00  0.00000000E+00
  0.00000000E+00  0.00000000E+00  0.00000000E+00
  0.00000000E+00  0.00000000E+00  0.00000000E+00
  0.00000000E+00  0.00000000E+00  0.00000000E+00
  0.00000000E+00  0.00000000E+00  0.00000000E+00
  0.00000000E+00  0.00000000E+00  0.00000000E+00
