#44-Imm2                                
   1.00000000026122     
    12.1618829266989508    0.0000000000000000    0.0000000000000000
     0.0000000000000000    4.0638470783445042    0.0000000000000000
     0.0000000000000000    0.0000000000000000    5.7759009841248430
   Co   Fe   Ta
     2    20     2
Direct
  0.0000000000000000  0.5000000000000000  0.1958532241300901
  0.5000000000000000  0.0000000000000000  0.6958532241300901
  0.3332551515171431  0.0000000000000000  0.4330763246592468
  0.6667448484828569  0.0000000000000000  0.4330763246592468
  0.8332551515171431  0.5000000000000000  0.9330763246592468
  0.1667448484828569  0.5000000000000000  0.9330763246592468
  0.6674943014823498  0.0000000000000000  0.9334679423121486
  0.3325056985176502  0.0000000000000000  0.9334679423121486
  0.1674943014823498  0.5000000000000000  0.4334679423121486
  0.8325056985176502  0.5000000000000000  0.4334679423121486
  0.0000000000000000  0.5000000000000000  0.6722526043202706
  0.5000000000000000  0.0000000000000000  0.1722526043202706
  0.0000000000000000  0.0000000000000000  0.4340253837453218
  0.5000000000000000  0.5000000000000000  0.9340253837453218
  0.1698181376702124  0.0000000000000000  0.1894031678926638
  0.8301818623297876  0.0000000000000000  0.1894031678926638
  0.6698181376702124  0.5000000000000000  0.6894031678926638
  0.3301818623297876  0.5000000000000000  0.6894031678926638
  0.1700502226518239  0.0000000000000000  0.6779118387072600
  0.8299497773481761  0.0000000000000000  0.6779118387072600
  0.6700502226518239  0.5000000000000000  0.1779118387072600
  0.3299497773481761  0.5000000000000000  0.1779118387072600
  0.0000000000000000  0.0000000000000000  0.9331902406617019
  0.5000000000000000  0.5000000000000000  0.4331902406617019
 
  0.00000000E+00  0.00000000E+00  0.00000000E+00
  0.00000000E+00  0.00000000E+00  0.00000000E+00
  0.00000000E+00  0.00000000E+00  0.00000000E+00
  0.00000000E+00  0.00000000E+00  0.00000000E+00
  0.00000000E+00  0.00000000E+00  0.00000000E+00
  0.00000000E+00  0.00000000E+00  0.00000000E+00
  0.00000000E+00  0.00000000E+00  0.00000000E+00
  0.00000000E+00  0.00000000E+00  0.00000000E+00
  0.00000000E+00  0.00000000E+00  0.00000000E+00
  0.00000000E+00  0.00000000E+00  0.00000000E+00
  0.00000000E+00  0.00000000E+00  0.00000000E+00
  0.00000000E+00  0.00000000E+00  0.00000000E+00
  0.00000000E+00  0.00000000E+00  0.00000000E+00
  0.00000000E+00  0.00000000E+00  0.00000000E+00
  0.00000000E+00  0.00000000E+00  0.00000000E+00
  0.00000000E+00  0.00000000E+00  0.00000000E+00
  0.00000000E+00  0.00000000E+00  0.00000000E+00
  0.00000000E+00  0.00000000E+00  0.00000000E+00
  0.00000000E+00  0.00000000E+00  0.00000000E+00
  0.00000000E+00  0.00000000E+00  0.00000000E+00
  0.00000000E+00  0.00000000E+00  0.00000000E+00
  0.00000000E+00  0.00000000E+00  0.00000000E+00
  0.00000000E+00  0.00000000E+00  0.00000000E+00
  0.00000000E+00  0.00000000E+00  0.00000000E+00
