#8 (C m) [unique axis c] cell choice 1  
   8.66766000864215     
     0.3371743580456268    0.0000000000000000   -0.9407298508493874
    -0.4981755688103598    0.2343057620511401   -0.0003427584857956
     0.4981755688103598    0.2343057620511401    0.0003427584857956
   Co   Fe   Ta
     1    10     1
Direct
  0.0002867503667429  0.9998464466713152  0.0001535533286849
  0.1602579948395609  0.5002611864493287  0.4997388135506714
  0.2409089633203133  0.2510211773175475  0.7489788226824524
  0.5660875574531338  0.2503745992781990  0.7496254007218009
  0.6471227759555478  0.0050934450737747  0.9949065549262254
  0.4045976635700861  0.7518696735217683  0.2481303264782317
  0.4863773066275874  0.5032141833158179  0.4967858166841820
  0.0801668903571326  0.7544566082176209  0.2455433917823791
  0.7354897645771979  0.7562691532540418  0.2437308467459583
  0.9112437729397987  0.2478639596974658  0.7521360403025341
  0.3231415878523542  0.0011950629505788  0.9988049370494212
  0.8228889721405549  0.5020645042525353  0.4979354957474647
 
  0.00000000E+00  0.00000000E+00  0.00000000E+00
  0.00000000E+00  0.00000000E+00  0.00000000E+00
  0.00000000E+00  0.00000000E+00  0.00000000E+00
  0.00000000E+00  0.00000000E+00  0.00000000E+00
  0.00000000E+00  0.00000000E+00  0.00000000E+00
  0.00000000E+00  0.00000000E+00  0.00000000E+00
  0.00000000E+00  0.00000000E+00  0.00000000E+00
  0.00000000E+00  0.00000000E+00  0.00000000E+00
  0.00000000E+00  0.00000000E+00  0.00000000E+00
  0.00000000E+00  0.00000000E+00  0.00000000E+00
  0.00000000E+00  0.00000000E+00  0.00000000E+00
  0.00000000E+00  0.00000000E+00  0.00000000E+00
