#6 (P m) [unique axis c]                
   5.00945999920096     
     0.4881717128789733    0.0000000000000000   -1.4112725261103087
    -0.9961908798610041    0.0000000000000000    0.0021853588174172
     0.0000000000000000    0.8100458943629645    0.0000000000000000
   Co   Fe   Ta
     1    10     1
Direct
  0.0001574694161048  0.0002835540816862 -0.0000000000000000
  0.8312682731099468  0.2477266640933712  0.5000000000000000
  0.1614085813391307  0.2447886813374369  0.5000000000000000
  0.3249168821523233  0.9897168302228276  0.0000000000000000
  0.4868893445460135  0.2297236173243268  0.5000000000000000
  0.0032201434112359  0.4970027912027059 -0.0000000000000000
  0.4938106839039215  0.7432780327903005  0.5000000000000000
  0.3237760050060962  0.4940744105732095  0.0000000000000000
  0.6643617472217243  0.9953819861383254 -0.0000000000000000
  0.8404825575041589  0.7611443003504672  0.5000000000000000
  0.1635069425850087  0.7428221330882901  0.5000000000000000
  0.6619113698043460  0.4937469987970586 -0.0000000000000000
 
  0.00000000E+00  0.00000000E+00  0.00000000E+00
  0.00000000E+00  0.00000000E+00  0.00000000E+00
  0.00000000E+00  0.00000000E+00  0.00000000E+00
  0.00000000E+00  0.00000000E+00  0.00000000E+00
  0.00000000E+00  0.00000000E+00  0.00000000E+00
  0.00000000E+00  0.00000000E+00  0.00000000E+00
  0.00000000E+00  0.00000000E+00  0.00000000E+00
  0.00000000E+00  0.00000000E+00  0.00000000E+00
  0.00000000E+00  0.00000000E+00  0.00000000E+00
  0.00000000E+00  0.00000000E+00  0.00000000E+00
  0.00000000E+00  0.00000000E+00  0.00000000E+00
  0.00000000E+00  0.00000000E+00  0.00000000E+00
