#10 (P 2/m) [unique axis c]             
   5.00754999587702     
     0.4950948901145580    0.0000000000000000   -1.4088557377643292
    -0.9985545646239794    0.0000000000000000   -0.0009835221980137
     0.0000000000000000    0.8095263876318314    0.0000000000000000
   Co   Fe   Ta
     1    10     1
Direct
 -0.0000000000000000 -0.0000000000000000  0.0000000000000000
  0.6644186779761556  0.9957761116678862  0.0000000000000000
  0.3355813220238443  0.0042238883321137  0.0000000000000000
  0.8305851792537231  0.7478143562239054  0.5000000000000000
  0.1694148207462769  0.2521856437760946  0.5000000000000000
  0.1748435009428299  0.7634842428387333  0.5000000000000000
  0.8251564990571700  0.2365157571612668  0.5000000000000000
  0.3395803037364891  0.5030774192839692  0.0000000000000000
  0.6604196962635108  0.4969225807160308  0.0000000000000000
  0.4999999398487252  0.7493798829630653  0.5000000000000000
  0.5000000601512748  0.2506201170369347  0.5000000000000000
 -0.0000000000000000  0.5000000000000000  0.0000000000000000
 
  0.00000000E+00  0.00000000E+00  0.00000000E+00
  0.00000000E+00  0.00000000E+00  0.00000000E+00
  0.00000000E+00  0.00000000E+00  0.00000000E+00
  0.00000000E+00  0.00000000E+00  0.00000000E+00
  0.00000000E+00  0.00000000E+00  0.00000000E+00
  0.00000000E+00  0.00000000E+00  0.00000000E+00
  0.00000000E+00  0.00000000E+00  0.00000000E+00
  0.00000000E+00  0.00000000E+00  0.00000000E+00
  0.00000000E+00  0.00000000E+00  0.00000000E+00
  0.00000000E+00  0.00000000E+00  0.00000000E+00
  0.00000000E+00  0.00000000E+00  0.00000000E+00
  0.00000000E+00  0.00000000E+00  0.00000000E+00
