#12 (C 2/m) [unique axis c] cell choice 
   12.2307600132064     
     0.3322120945437880    0.0000000000000000   -0.4720369317893222
    -0.4986359732120593    0.1660234842527482    0.0007352523007044
     0.4986359732120593    0.1660234842527482   -0.0007352523007044
   Co   Fe   Ta
     1    10     1
Direct
  0.0000000000000000  0.0000000000000000 -0.0000000000000000
  0.5010246389609938  0.1681826579636493  0.8318173420363507
  0.4989753610390063  0.8318173420363507  0.1681826579636493
  0.7621854575033868  0.0867627459945737  0.9132372540054262
  0.2378145424966061  0.9132372540054262  0.0867627459945737
  0.9981997934936775  0.3317509150495034  0.6682490849504967
  0.0018002065063225  0.6682490849504967  0.3317509150495034
  0.7560342670006069  0.4149223470204974  0.5850776529795026
  0.2439657329993931  0.5850776529795026  0.4149223470204974
  0.2465701746702993  0.2447870875992851  0.7552129124007150
  0.7534298253297005  0.7552129124007150  0.2447870875992851
  0.5000000000000000  0.5000000000000000  0.5000000000000000
 
  0.00000000E+00  0.00000000E+00  0.00000000E+00
  0.00000000E+00  0.00000000E+00  0.00000000E+00
  0.00000000E+00  0.00000000E+00  0.00000000E+00
  0.00000000E+00  0.00000000E+00  0.00000000E+00
  0.00000000E+00  0.00000000E+00  0.00000000E+00
  0.00000000E+00  0.00000000E+00  0.00000000E+00
  0.00000000E+00  0.00000000E+00  0.00000000E+00
  0.00000000E+00  0.00000000E+00  0.00000000E+00
  0.00000000E+00  0.00000000E+00  0.00000000E+00
  0.00000000E+00  0.00000000E+00  0.00000000E+00
  0.00000000E+00  0.00000000E+00  0.00000000E+00
  0.00000000E+00  0.00000000E+00  0.00000000E+00
