#99 (P 4 m m)                           
   4.06310000171190     
     0.9980107682493269    0.0000000000000000    0.0000000000000000
     0.0000000000000000    0.9980107682493269    0.0000000000000000
     0.0000000000000000    0.0000000000000000    2.1390980626825824
   Co   Fe   Ta
     1    10     1
Direct
 -0.0000000000000000  0.0000000000000000  0.9998204416090456
 -0.0000000000000000  0.5000000000000000  0.5146740298540355
  0.5000000000000000  0.0000000000000000  0.5146740298540355
  0.5000000000000000  0.5000000000000000  0.3389143360244208
  0.5000000000000000  0.5000000000000000  0.6760050163201193
  0.5000000000000000  0.5000000000000000  0.0025248558086605
 -0.0000000000000000  0.5000000000000000  0.8399426733880400
  0.5000000000000000 -0.0000000000000000  0.8399426733880400
 -0.0000000000000000  0.5000000000000000  0.1616665753723420
  0.5000000000000000 -0.0000000000000000  0.1616665753723420
  0.0000000000000000 -0.0000000000000000  0.6766207756381827
 -0.0000000000000000 -0.0000000000000000  0.3396880173707331
 
  0.00000000E+00  0.00000000E+00  0.00000000E+00
  0.00000000E+00  0.00000000E+00  0.00000000E+00
  0.00000000E+00  0.00000000E+00  0.00000000E+00
  0.00000000E+00  0.00000000E+00  0.00000000E+00
  0.00000000E+00  0.00000000E+00  0.00000000E+00
  0.00000000E+00  0.00000000E+00  0.00000000E+00
  0.00000000E+00  0.00000000E+00  0.00000000E+00
  0.00000000E+00  0.00000000E+00  0.00000000E+00
  0.00000000E+00  0.00000000E+00  0.00000000E+00
  0.00000000E+00  0.00000000E+00  0.00000000E+00
  0.00000000E+00  0.00000000E+00  0.00000000E+00
  0.00000000E+00  0.00000000E+00  0.00000000E+00
