#38 (A m m 2)                           
   5.78531000167398     
     0.9984374034456233    0.0000000000000000    0.0000000000000000
     0.0000000000000000   -0.3509274134258908   -1.0541178103372688
     0.0000000000000000    0.3509274134258908   -1.0541178103372688
   Co   Fe   Ta
     1    10     1
Direct
  0.0000000000000000 -0.0000524353885381 -0.0000524353885381
  0.7606522716209655  0.8339838170858503  0.8339838170858503
  0.2393477283790345  0.8339838170858503  0.8339838170858503
  0.0000000000000000  0.6675918233099941  0.6675918233099941
  0.5000000000000000  0.0011466306364512  0.0011466306364512
  0.5000000000000000  0.6651932876727820  0.6651932876727820
  0.2444212358658495  0.5037556641211353  0.5037556641211353
  0.7555787641341505  0.5037556641211353  0.5037556641211353
  0.7554578812791104  0.1624668724168174  0.1624668724168174
  0.2445421187208895  0.1624668724168174  0.1624668724168174
  0.0000000000000000  0.3329769263913087  0.3329769263913087
  0.5000000000000000  0.3333210601303911  0.3333210601303911
 
  0.00000000E+00  0.00000000E+00  0.00000000E+00
  0.00000000E+00  0.00000000E+00  0.00000000E+00
  0.00000000E+00  0.00000000E+00  0.00000000E+00
  0.00000000E+00  0.00000000E+00  0.00000000E+00
  0.00000000E+00  0.00000000E+00  0.00000000E+00
  0.00000000E+00  0.00000000E+00  0.00000000E+00
  0.00000000E+00  0.00000000E+00  0.00000000E+00
  0.00000000E+00  0.00000000E+00  0.00000000E+00
  0.00000000E+00  0.00000000E+00  0.00000000E+00
  0.00000000E+00  0.00000000E+00  0.00000000E+00
  0.00000000E+00  0.00000000E+00  0.00000000E+00
  0.00000000E+00  0.00000000E+00  0.00000000E+00
