#15 (C 2/c) [unique axis c]             
   5.06108000270089     
    -0.0092050458861706    0.0000000000000000    1.4065401445394334
     0.4984832619773099    0.8190977196308151   -0.0001763895244142
    -0.4984832619773099    0.8190977196308151    0.0001763895244142
   Fe   Ta
    10     2
Direct
  0.0887792611826108  0.4580964098634166  0.8020645761990388
  0.4112207388173892  0.8020645761990388  0.4580964098634166
  0.9112207388173892  0.5419035901365834  0.1979354238009610
  0.5887792611826108  0.1979354238009610  0.5419035901365834
  0.0783121357359201  0.9525709404075399  0.2886367967359725
  0.4216878642640799  0.2886367967359725  0.9525709404075399
  0.9216878642640799  0.0474290595924601  0.7113632032640277
  0.5783121357359201  0.7113632032640277  0.0474290595924601
  0.2500000000000000  0.8779935718029295  0.8779935718029295
  0.7500000000000000  0.1220064281970704  0.1220064281970704
  0.2500000000000000  0.3755369127040624  0.3755369127040624
  0.7500000000000000  0.6244630872959377  0.6244630872959377
 
  0.00000000E+00  0.00000000E+00  0.00000000E+00
  0.00000000E+00  0.00000000E+00  0.00000000E+00
  0.00000000E+00  0.00000000E+00  0.00000000E+00
  0.00000000E+00  0.00000000E+00  0.00000000E+00
  0.00000000E+00  0.00000000E+00  0.00000000E+00
  0.00000000E+00  0.00000000E+00  0.00000000E+00
  0.00000000E+00  0.00000000E+00  0.00000000E+00
  0.00000000E+00  0.00000000E+00  0.00000000E+00
  0.00000000E+00  0.00000000E+00  0.00000000E+00
  0.00000000E+00  0.00000000E+00  0.00000000E+00
  0.00000000E+00  0.00000000E+00  0.00000000E+00
  0.00000000E+00  0.00000000E+00  0.00000000E+00
