#139-I4/m2/m2/m                         
  0.999999999634018     
     4.1085871053167597    0.0000000000000000    0.0000000000000000
     0.0000000000000000    4.1085871053167597   -0.0000000000000000
     0.0000000000000000    0.0000000000000000   17.5427897143783262
   Fe   Ta
    20     4
Direct
 -0.0000000000000000 -0.0000000000000000  0.8363542211513361
  0.0000000000000000 -0.0000000000000000  0.1636457788486640
  0.5000000000000000  0.5000000000000000  0.3363542211513360
  0.5000000000000000  0.5000000000000000  0.6636457788486639
  0.0000000000000000  0.5000000000000000  0.2500000000000000
 -0.0000000000000000  0.5000000000000000  0.7500000000000000
  0.5000000000000000  0.0000000000000000  0.7500000000000000
  0.5000000000000000  0.0000000000000000  0.2500000000000000
  0.0000000000000000 -0.0000000000000000 -0.0000000000000000
  0.5000000000000000  0.5000000000000000  0.5000000000000000
 -0.0000000000000000  0.5000000000000000  0.9207566471010984
 -0.0000000000000000  0.5000000000000000  0.0792433528989016
  0.5000000000000000  0.0000000000000000  0.0792433528989016
  0.5000000000000000  0.0000000000000000  0.9207566471010984
  0.5000000000000000 -0.0000000000000000  0.4207566471010984
  0.5000000000000000  0.0000000000000000  0.5792433528989016
 -0.0000000000000000  0.5000000000000000  0.5792433528989016
 -0.0000000000000000  0.5000000000000000  0.4207566471010984
 -0.0000000000000000 -0.0000000000000000  0.5000000000000000
  0.5000000000000000  0.5000000000000000 -0.0000000000000000
 -0.0000000000000000 -0.0000000000000000  0.3347096162129410
 -0.0000000000000000  0.0000000000000000  0.6652903837870590
  0.5000000000000000  0.5000000000000000  0.8347096162129410
  0.5000000000000000  0.5000000000000000  0.1652903837870589
 
  0.00000000E+00  0.00000000E+00  0.00000000E+00
  0.00000000E+00  0.00000000E+00  0.00000000E+00
  0.00000000E+00  0.00000000E+00  0.00000000E+00
  0.00000000E+00  0.00000000E+00  0.00000000E+00
  0.00000000E+00  0.00000000E+00  0.00000000E+00
  0.00000000E+00  0.00000000E+00  0.00000000E+00
  0.00000000E+00  0.00000000E+00  0.00000000E+00
  0.00000000E+00  0.00000000E+00  0.00000000E+00
  0.00000000E+00  0.00000000E+00  0.00000000E+00
  0.00000000E+00  0.00000000E+00  0.00000000E+00
  0.00000000E+00  0.00000000E+00  0.00000000E+00
  0.00000000E+00  0.00000000E+00  0.00000000E+00
  0.00000000E+00  0.00000000E+00  0.00000000E+00
  0.00000000E+00  0.00000000E+00  0.00000000E+00
  0.00000000E+00  0.00000000E+00  0.00000000E+00
  0.00000000E+00  0.00000000E+00  0.00000000E+00
  0.00000000E+00  0.00000000E+00  0.00000000E+00
  0.00000000E+00  0.00000000E+00  0.00000000E+00
  0.00000000E+00  0.00000000E+00  0.00000000E+00
  0.00000000E+00  0.00000000E+00  0.00000000E+00
  0.00000000E+00  0.00000000E+00  0.00000000E+00
  0.00000000E+00  0.00000000E+00  0.00000000E+00
  0.00000000E+00  0.00000000E+00  0.00000000E+00
  0.00000000E+00  0.00000000E+00  0.00000000E+00
