#164 (P -3 m 1)                         
   4.11656999989650     
     0.9968144580323695    0.0000000000000000    0.0000000000000000
    -0.4984072290161847    0.8632662435883401   -0.0000000000000000
     0.0000000000000000   -0.0000000000000000    1.2299036456371693
   Fe   Ta
     5     1
Direct
  0.3333299999999966  0.6666700000000034  0.3366835892138537
  0.6666600000000003  0.3333299999999966  0.6633164107861462
  0.3333299999999966  0.6666700000000034  0.8184445321446780
  0.6666600000000003  0.3333299999999966  0.1815554678553220
  0.0000000000000000 -0.0000000000000000  0.5000000000000000
 -0.0000000000000000 -0.0000000000000000 -0.0000000000000000
 
  0.00000000E+00  0.00000000E+00  0.00000000E+00
  0.00000000E+00  0.00000000E+00  0.00000000E+00
  0.00000000E+00  0.00000000E+00  0.00000000E+00
  0.00000000E+00  0.00000000E+00  0.00000000E+00
  0.00000000E+00  0.00000000E+00  0.00000000E+00
  0.00000000E+00  0.00000000E+00  0.00000000E+00
