#11 (P 21/m) [unique axis c]            
   4.86489999704011     
     0.2615518922412108    0.0000000000000000   -1.5372278989051043
    -0.9976749841124660    0.0000000000000000    0.0007435937894875
     0.0000000000000000    0.8423229376017850    0.0000000000000000
   Fe   Ta
    10     2
Direct
  0.9542657382913030  0.1263176397812779  0.2500000000000000
  0.0457342617086969  0.8736823602187221  0.7500000000000000
  0.7980035225268193  0.6183984569008741  0.2500000000000000
  0.2019964774731809  0.3816015430991259  0.7500000000000000
  0.6288696792884145  0.1417669535364631  0.2500000000000000
  0.3711303207115854  0.8582330464635369  0.7500000000000000
  0.1208642174681878  0.6177837238143068  0.2500000000000000
  0.8791357825318121  0.3822162761856931  0.7500000000000000
  0.4625046037165333  0.6311738127523615  0.2500000000000000
  0.5374953962834667  0.3688261872476384  0.7500000000000000
  0.2915659712691584  0.1247095462250655  0.2500000000000000
  0.7084340287308416  0.8752904537749344  0.7500000000000000
 
  0.00000000E+00  0.00000000E+00  0.00000000E+00
  0.00000000E+00  0.00000000E+00  0.00000000E+00
  0.00000000E+00  0.00000000E+00  0.00000000E+00
  0.00000000E+00  0.00000000E+00  0.00000000E+00
  0.00000000E+00  0.00000000E+00  0.00000000E+00
  0.00000000E+00  0.00000000E+00  0.00000000E+00
  0.00000000E+00  0.00000000E+00  0.00000000E+00
  0.00000000E+00  0.00000000E+00  0.00000000E+00
  0.00000000E+00  0.00000000E+00  0.00000000E+00
  0.00000000E+00  0.00000000E+00  0.00000000E+00
  0.00000000E+00  0.00000000E+00  0.00000000E+00
  0.00000000E+00  0.00000000E+00  0.00000000E+00
