#2 (P -1)                               
   4.82822999559326     
     0.9992328975614622   -0.0008995024953533   -0.0024612129179170
    -0.0901958773302013    0.9971640918027282    0.0004819280683380
    -0.1602451683752211   -0.2081384550376711    1.3306197008395577
   Fe   Ta
    10     2
Direct
  0.8840078012473986  0.2143171447600972  0.4573430394631630
  0.1159578199914714  0.7856832900594746  0.5426576379456250
  0.1172657673239265  0.4682081361594795  0.2070079115514342
  0.8826992875956552  0.5317893762836511  0.7929914201529191
  0.6290498354038624  0.6173257366850984  0.3729105037417967
  0.3709151550268474  0.3826732981853901  0.6270908573325144
  0.1359939084798551  0.1293412470033607  0.8801584370448170
  0.8639755719781019  0.8706593268500483  0.1198392016748252
  0.3659877440244529  0.6940751539416120  0.9560338225378111
  0.6339845344844645  0.3059173102562309  0.0439643866044036
  0.3710726115552029  0.0430630483507983  0.2856219277284378
  0.6288899628887616  0.9569469314647450  0.7143808542222529
 
  0.00000000E+00  0.00000000E+00  0.00000000E+00
  0.00000000E+00  0.00000000E+00  0.00000000E+00
  0.00000000E+00  0.00000000E+00  0.00000000E+00
  0.00000000E+00  0.00000000E+00  0.00000000E+00
  0.00000000E+00  0.00000000E+00  0.00000000E+00
  0.00000000E+00  0.00000000E+00  0.00000000E+00
  0.00000000E+00  0.00000000E+00  0.00000000E+00
  0.00000000E+00  0.00000000E+00  0.00000000E+00
  0.00000000E+00  0.00000000E+00  0.00000000E+00
  0.00000000E+00  0.00000000E+00  0.00000000E+00
  0.00000000E+00  0.00000000E+00  0.00000000E+00
  0.00000000E+00  0.00000000E+00  0.00000000E+00
