#12 (C 2/m) [unique axis c] cell choice 
   8.84105999069749     
     0.3338947115986466    0.0000000000000000   -0.9317502911999185
    -0.4980311002183389    0.2318494217408447   -0.0000083621379086
     0.4980311002183389    0.2318494217408447    0.0000083621379086
   Fe   Ta
    10     2
Direct
  0.6259944377430054  0.1285889434807795  0.8714110565192204
  0.3740055622569875  0.8714110565192204  0.1285889434807795
  0.1175627962482962  0.6264761027373025  0.3735238972626974
  0.8824372037517039  0.3735238972626974  0.6264761027373025
  0.0388014947571994  0.8702680044469969  0.1297319955530031
  0.9611985052428006  0.1297319955530031  0.8702680044469969
  0.2045763735976211  0.3788747780423221  0.6211252219576781
  0.7954236264023788  0.6211252219576781  0.3788747780423221
  0.4608718301270363  0.6195941505567810  0.3804058494432189
  0.5391281698729636  0.3804058494432189  0.6195941505567810
  0.2909016493707553  0.1255472176378336  0.8744527823621664
  0.7090983506292374  0.8744527823621664  0.1255472176378336
 
  0.00000000E+00  0.00000000E+00  0.00000000E+00
  0.00000000E+00  0.00000000E+00  0.00000000E+00
  0.00000000E+00  0.00000000E+00  0.00000000E+00
  0.00000000E+00  0.00000000E+00  0.00000000E+00
  0.00000000E+00  0.00000000E+00  0.00000000E+00
  0.00000000E+00  0.00000000E+00  0.00000000E+00
  0.00000000E+00  0.00000000E+00  0.00000000E+00
  0.00000000E+00  0.00000000E+00  0.00000000E+00
  0.00000000E+00  0.00000000E+00  0.00000000E+00
  0.00000000E+00  0.00000000E+00  0.00000000E+00
  0.00000000E+00  0.00000000E+00  0.00000000E+00
  0.00000000E+00  0.00000000E+00  0.00000000E+00
