#12 (C 2/m) [unique axis c] cell choice 
   8.76893000066214     
     0.3485395190369340    0.0000000000000000   -0.9558221201516733
    -0.4976293605764772    0.2323526701406584    0.0008188375297211
     0.4976293605764772    0.2323526701406584   -0.0008188375297211
   Fe   Ta
    10     2
Direct
  0.0770589237794987  0.7473151775294804  0.2526848224705195
  0.9229410762205013  0.2526848224705195  0.7473151775294804
  0.0000000000000000 -0.0000000000000000  0.0000000000000000
  0.5871303344327616  0.2538437698829018  0.7461562301170980
  0.4128696655672384  0.7461562301170980  0.2538437698829018
  0.1564733348827188  0.5034563355557248  0.4965436644442752
  0.8435266651172811  0.4965436644442752  0.5034563355557248
  0.2432367716741482  0.2555517477966009  0.7444482522034062
  0.7567632283258517  0.7444482522034062  0.2555517477966009
  0.5000000000000000  0.5000000000000000  0.5000000000000000
  0.3273289243557357  0.0019378684953533  0.9980621315046467
  0.6726710756442642  0.9980621315046467  0.0019378684953533
 
  0.00000000E+00  0.00000000E+00  0.00000000E+00
  0.00000000E+00  0.00000000E+00  0.00000000E+00
  0.00000000E+00  0.00000000E+00  0.00000000E+00
  0.00000000E+00  0.00000000E+00  0.00000000E+00
  0.00000000E+00  0.00000000E+00  0.00000000E+00
  0.00000000E+00  0.00000000E+00  0.00000000E+00
  0.00000000E+00  0.00000000E+00  0.00000000E+00
  0.00000000E+00  0.00000000E+00  0.00000000E+00
  0.00000000E+00  0.00000000E+00  0.00000000E+00
  0.00000000E+00  0.00000000E+00  0.00000000E+00
  0.00000000E+00  0.00000000E+00  0.00000000E+00
  0.00000000E+00  0.00000000E+00  0.00000000E+00
