#10 (P 2/m) [unique axis c]             
   5.06308000187965     
     0.0503982945226405    0.0000000000000000   -1.4270849294140804
    -0.9977883248646269    0.0000000000000000    0.0004986932852160
     0.0000000000000000    0.8030041618068128    0.0000000000000000
   Fe   Ta
    10     2
Direct
  0.5000000000000000  0.5000000000000000 -0.0000000000000000
  0.1740536516309281  0.8242108004213855 -0.0000000000000000
  0.8259463483690719  0.1757891995786145 -0.0000000000000000
  0.5000000000000000 -0.0000000000000000 -0.0000000000000000
  0.6573808160327602  0.8466356970846434  0.5000000000000000
  0.3426191839672398  0.1533643029153567  0.5000000000000000
  0.6637865360717495  0.3374309839616801  0.5000000000000000
  0.3362134639282506  0.6625690160383199  0.5000000000000000
 -0.0000000000000000 -0.0000000000000000  0.5000000000000000
 -0.0000000000000000  0.5000000000000000  0.5000000000000000
  0.1700120176387557  0.3214336931744957 -0.0000000000000000
  0.8299879823612443  0.6785663068255042 -0.0000000000000000
 
  0.00000000E+00  0.00000000E+00  0.00000000E+00
  0.00000000E+00  0.00000000E+00  0.00000000E+00
  0.00000000E+00  0.00000000E+00  0.00000000E+00
  0.00000000E+00  0.00000000E+00  0.00000000E+00
  0.00000000E+00  0.00000000E+00  0.00000000E+00
  0.00000000E+00  0.00000000E+00  0.00000000E+00
  0.00000000E+00  0.00000000E+00  0.00000000E+00
  0.00000000E+00  0.00000000E+00  0.00000000E+00
  0.00000000E+00  0.00000000E+00  0.00000000E+00
  0.00000000E+00  0.00000000E+00  0.00000000E+00
  0.00000000E+00  0.00000000E+00  0.00000000E+00
  0.00000000E+00  0.00000000E+00  0.00000000E+00
