#150 (P 3 2 1)                          
   8.89868999943483     
     0.9978472081620915   -0.0000066896082700    0.0000017345120156
    -0.4989293974490561    0.8641572853890548   -0.0000017345112144
     0.0000024098082136   -0.0000013913027787    1.3872035013052348
   Co   Ta
    60    12
Direct
  0.8308467327797717  0.0007034256126542  0.8296847009238600
  0.9992878492640748  0.8297907202910182  0.8297117559358623
  0.1701242724174530  0.1692313920216483  0.8296916306176892
  0.0007034256126681  0.8308467327797758  0.1703152990761397
  0.1692313920216469  0.1701242724174539  0.1703083693823108
  0.8297907202910216  0.9992878492640851  0.1702882440641379
  0.1640893790992793  0.6675317545065625  0.4963519932631112
  0.3324752102554063  0.4965607469675639  0.4963582686855696
  0.5034396243364845  0.8359109338513828  0.4963487715548828
  0.3341975036664119  0.4974126147474538  0.8369765818280221
  0.5026106261280057  0.8367511848496715  0.8369778821867710
  0.1632775754503763  0.6657639407734653  0.8369872440205037
  0.4974126147474498  0.3341975036664129  0.1630234181719778
  0.6657639407734652  0.1632775754503763  0.1630127559794962
  0.8367511848496731  0.5026106261280098  0.1630221178132288
  0.6675317545065691  0.1640893790992770  0.5036480067368887
  0.8359109338513808  0.5034396243364773  0.5036512284451174
  0.4965607469675598  0.3324752102554092  0.5036417313144305
  0.5053687694671581  0.9999970734643803  0.0000147489944673
  0.9999970734643796  0.5053687694671634  0.9999852510055326
  0.4946321929174193  0.4946321929174203 -0.0000000000000000
  0.8387258860399817  0.6666780432131106  0.6666767063802655
  0.3333360855795294  0.1720369842668822  0.6666669147509661
  0.8279612878566780  0.1612598789867904  0.6666966195996515
  0.1720369842668770  0.3333360855795305  0.3333330852490339
  0.6666780432131101  0.8387258860399806  0.3333232936197346
  0.1612598789867909  0.8279612878566799  0.3333033804003485
  0.8365121798819450  0.9999986260572249  0.5000001486977820
  0.9999986260572260  0.8365121798819474  0.4999998513022182
  0.1634860841733053  0.1634860841733040  0.5000000000000000
  0.1698055611676284  0.6667117666510806  0.1666755989096693
  0.3333296467187049  0.5031949618846256  0.1666693788842819
  0.4967923969933358  0.8301748759211021  0.1666679086712712
  0.5031949618846229  0.3333296467187037  0.8333306211157180
  0.6667117666510793  0.1698055611676287  0.8333244010903305
  0.8301748759211021  0.4967923969933332  0.8333320913287289
  0.9932859598310148  0.5057615419037409  0.6682807503970954
  0.4942354979570596  0.4875168375591455  0.6682658303831654
  0.5124910897310254  0.0067161840022164  0.6682577766736340
  0.5057615419037426  0.9932859598310178  0.3317192496029047
  0.0067161840022109  0.5124910897310243  0.3317422233263659
  0.4875168375591500  0.4942354979570585  0.3317341696168346
  0.3266143870321242  0.1724344481408306  0.3349413529587595
  0.8275580088112716  0.1542196226743291  0.3349778878073238
  0.8458032118141924  0.6733703707862829  0.3349574493034981
  0.8391024148978360  0.6599500239815156  0.9983952557176407
  0.3400537306318540  0.1791507028904535  0.9984003017042400
  0.8208484139260345  0.1608878102094997  0.9983529046395361
  0.6599500239815200  0.8391024148978350  0.0016047442823593
  0.1608878102095014  0.8208484139260306  0.0016470953604638
  0.1791507028904481  0.3400537306318597  0.0015996982957600
  0.1724344481408319  0.3266143870321199  0.6650586470412403
  0.6733703707862775  0.8458032118141909  0.6650425506965021
  0.1542196226743321  0.8275580088112768  0.6650221121926760
  0.0000244462524830  0.9999732469566351  0.6684297615353472
  0.9999732469566363  0.0000244462524843  0.3315702384646528
  0.3333312412431971  0.6666698421644145  0.3350937759689551
  0.3333334632255323  0.6666692913102178  0.9982427634184405
  0.6666692913102180  0.3333334632255324  0.0017572365815595
  0.6666698421644145  0.3333312412431971  0.6649062240310449
  0.0000010309362552  0.0000010309362552 -0.0000000000000000
  0.3333396862392605  0.6666416224027361  0.6666657205738257
  0.6666416224027372  0.3333396862392612  0.3333342794261744
  0.3361242971632915  0.0000002970365606  0.4999811856894294
  0.0000002970365650  0.3361242971632925  0.5000188143105706
  0.6638772282897671  0.6638772282897706  0.5000000000000000
  0.6693982713888307  0.6667253404356680  0.1666696181222261
  0.3332307231852852  0.0027510047063663  0.1666812747221626
  0.9972466792255742  0.3306542427978964  0.1666597719329168
  0.0027510047063653  0.3332307231852922  0.8333187252778375
  0.6667253404356694  0.6693982713888360  0.8333303818777739
  0.3306542427979041  0.9972466792255773  0.8333402280670832
 
  0.00000000E+00  0.00000000E+00  0.00000000E+00
  0.00000000E+00  0.00000000E+00  0.00000000E+00
  0.00000000E+00  0.00000000E+00  0.00000000E+00
  0.00000000E+00  0.00000000E+00  0.00000000E+00
  0.00000000E+00  0.00000000E+00  0.00000000E+00
  0.00000000E+00  0.00000000E+00  0.00000000E+00
  0.00000000E+00  0.00000000E+00  0.00000000E+00
  0.00000000E+00  0.00000000E+00  0.00000000E+00
  0.00000000E+00  0.00000000E+00  0.00000000E+00
  0.00000000E+00  0.00000000E+00  0.00000000E+00
  0.00000000E+00  0.00000000E+00  0.00000000E+00
  0.00000000E+00  0.00000000E+00  0.00000000E+00
  0.00000000E+00  0.00000000E+00  0.00000000E+00
  0.00000000E+00  0.00000000E+00  0.00000000E+00
  0.00000000E+00  0.00000000E+00  0.00000000E+00
  0.00000000E+00  0.00000000E+00  0.00000000E+00
  0.00000000E+00  0.00000000E+00  0.00000000E+00
  0.00000000E+00  0.00000000E+00  0.00000000E+00
  0.00000000E+00  0.00000000E+00  0.00000000E+00
  0.00000000E+00  0.00000000E+00  0.00000000E+00
  0.00000000E+00  0.00000000E+00  0.00000000E+00
  0.00000000E+00  0.00000000E+00  0.00000000E+00
  0.00000000E+00  0.00000000E+00  0.00000000E+00
  0.00000000E+00  0.00000000E+00  0.00000000E+00
  0.00000000E+00  0.00000000E+00  0.00000000E+00
  0.00000000E+00  0.00000000E+00  0.00000000E+00
  0.00000000E+00  0.00000000E+00  0.00000000E+00
  0.00000000E+00  0.00000000E+00  0.00000000E+00
  0.00000000E+00  0.00000000E+00  0.00000000E+00
  0.00000000E+00  0.00000000E+00  0.00000000E+00
  0.00000000E+00  0.00000000E+00  0.00000000E+00
  0.00000000E+00  0.00000000E+00  0.00000000E+00
  0.00000000E+00  0.00000000E+00  0.00000000E+00
  0.00000000E+00  0.00000000E+00  0.00000000E+00
  0.00000000E+00  0.00000000E+00  0.00000000E+00
  0.00000000E+00  0.00000000E+00  0.00000000E+00
  0.00000000E+00  0.00000000E+00  0.00000000E+00
  0.00000000E+00  0.00000000E+00  0.00000000E+00
  0.00000000E+00  0.00000000E+00  0.00000000E+00
  0.00000000E+00  0.00000000E+00  0.00000000E+00
  0.00000000E+00  0.00000000E+00  0.00000000E+00
  0.00000000E+00  0.00000000E+00  0.00000000E+00
  0.00000000E+00  0.00000000E+00  0.00000000E+00
  0.00000000E+00  0.00000000E+00  0.00000000E+00
  0.00000000E+00  0.00000000E+00  0.00000000E+00
  0.00000000E+00  0.00000000E+00  0.00000000E+00
  0.00000000E+00  0.00000000E+00  0.00000000E+00
  0.00000000E+00  0.00000000E+00  0.00000000E+00
  0.00000000E+00  0.00000000E+00  0.00000000E+00
  0.00000000E+00  0.00000000E+00  0.00000000E+00
  0.00000000E+00  0.00000000E+00  0.00000000E+00
  0.00000000E+00  0.00000000E+00  0.00000000E+00
  0.00000000E+00  0.00000000E+00  0.00000000E+00
  0.00000000E+00  0.00000000E+00  0.00000000E+00
  0.00000000E+00  0.00000000E+00  0.00000000E+00
  0.00000000E+00  0.00000000E+00  0.00000000E+00
  0.00000000E+00  0.00000000E+00  0.00000000E+00
  0.00000000E+00  0.00000000E+00  0.00000000E+00
  0.00000000E+00  0.00000000E+00  0.00000000E+00
  0.00000000E+00  0.00000000E+00  0.00000000E+00
  0.00000000E+00  0.00000000E+00  0.00000000E+00
  0.00000000E+00  0.00000000E+00  0.00000000E+00
  0.00000000E+00  0.00000000E+00  0.00000000E+00
  0.00000000E+00  0.00000000E+00  0.00000000E+00
  0.00000000E+00  0.00000000E+00  0.00000000E+00
  0.00000000E+00  0.00000000E+00  0.00000000E+00
  0.00000000E+00  0.00000000E+00  0.00000000E+00
  0.00000000E+00  0.00000000E+00  0.00000000E+00
  0.00000000E+00  0.00000000E+00  0.00000000E+00
  0.00000000E+00  0.00000000E+00  0.00000000E+00
  0.00000000E+00  0.00000000E+00  0.00000000E+00
  0.00000000E+00  0.00000000E+00  0.00000000E+00
