#6 (P m) [unique axis c]                
   6.80587999826984     
     0.2864010780244645    0.0000000000000000   -1.4802314757052661
    -0.9983389703765286    0.0000000000000000   -0.0004904377204191
     0.0000000000000000    0.6019479416691719    0.0000000000000000
   Co   Ta
    20     4
Direct
  0.5308463398382740  0.2061128448506875  0.5000000000000000
  0.0295994089323304  0.2308197651722552  0.5000000000000000
  0.4606497759974649  0.5417771092211054  0.5000000000000000
  0.8553796910531657  0.8633209444012989  0.5000000000000000
  0.1180998048678363  0.8698606266280272  0.5000000000000000
  0.6968917624099615  0.5494353482736796  0.5000000000000000
  0.6049234847738068  0.8675185161823900  0.5000000000000000
  0.1863613217447143  0.5528688376984144  0.5000000000000000
  0.9477990435661892  0.5620442449823162  0.5000000000000000
  0.3698178118858688  0.8849540661407485  0.5000000000000000
  0.4290027455004622  0.3182577615603938  0.0000000000000000
  0.0805873288662271  0.6587968161775587  0.0000000000000000
  0.2555008298520752  0.9875427349564029  0.0000000000000000
  0.5086243314645289  0.9982164614425828  0.0000000000000000
  0.7434663122440855  0.9731192405198431 -0.0000000000000000
  0.1604823158790341  0.3346651927680131 -0.0000000000000000
  0.8315285722660091  0.6447550126932987 -0.0000000000000000
  0.5918585885720190  0.6551988486070138 -0.0000000000000000
  0.9223172316621610  0.3423648987840731  0.0000000000000000
  0.6635726597488204  0.3295973034311467  0.0000000000000000
  0.2766891078086657  0.2214660955820670  0.5000000000000000
  0.7824302040613204  0.2075618799211925  0.5000000000000000
  0.3368769891380539  0.6491892182551913  0.0000000000000000
  0.0001743378669163  0.9993662317503231  0.0000000000000000
 
  0.00000000E+00  0.00000000E+00  0.00000000E+00
  0.00000000E+00  0.00000000E+00  0.00000000E+00
  0.00000000E+00  0.00000000E+00  0.00000000E+00
  0.00000000E+00  0.00000000E+00  0.00000000E+00
  0.00000000E+00  0.00000000E+00  0.00000000E+00
  0.00000000E+00  0.00000000E+00  0.00000000E+00
  0.00000000E+00  0.00000000E+00  0.00000000E+00
  0.00000000E+00  0.00000000E+00  0.00000000E+00
  0.00000000E+00  0.00000000E+00  0.00000000E+00
  0.00000000E+00  0.00000000E+00  0.00000000E+00
  0.00000000E+00  0.00000000E+00  0.00000000E+00
  0.00000000E+00  0.00000000E+00  0.00000000E+00
  0.00000000E+00  0.00000000E+00  0.00000000E+00
  0.00000000E+00  0.00000000E+00  0.00000000E+00
  0.00000000E+00  0.00000000E+00  0.00000000E+00
  0.00000000E+00  0.00000000E+00  0.00000000E+00
  0.00000000E+00  0.00000000E+00  0.00000000E+00
  0.00000000E+00  0.00000000E+00  0.00000000E+00
  0.00000000E+00  0.00000000E+00  0.00000000E+00
  0.00000000E+00  0.00000000E+00  0.00000000E+00
  0.00000000E+00  0.00000000E+00  0.00000000E+00
  0.00000000E+00  0.00000000E+00  0.00000000E+00
  0.00000000E+00  0.00000000E+00  0.00000000E+00
  0.00000000E+00  0.00000000E+00  0.00000000E+00
