#11 (P 21/m) [unique axis c]            
   7.69235000207431     
     0.3282358726193552    0.0000000000000000   -1.1609115422626508
    -0.9983139486095151    0.0000000000000000   -0.0006592795974645
     0.0000000000000000    0.5318385049288362    0.0000000000000000
   Co   Ta
    20     4
Direct
  0.3333436321501542  0.7830179792564363  0.2500000000000000
  0.6666563678498459  0.2169820207435637  0.7500000000000000
  0.0828524303925473  0.5350896887734340  0.2500000000000000
  0.9171475696074526  0.4649103112265658  0.7500000000000000
  0.3341373694958655  0.1020778222884085  0.2500000000000000
  0.6658626305041345  0.8979221777115914  0.7500000000000000
  0.6020899754451683  0.7075317542503802  0.2500000000000000
  0.3979100245548317  0.2924682457496198  0.7500000000000000
  0.8226084098139392  0.9520172247802012  0.2500000000000000
  0.1773915901860609  0.0479827752197988  0.7500000000000000
  0.0963256849402079  0.8539805826739119  0.2500000000000000
  0.9036743150597921  0.1460194173260882  0.7500000000000000
  0.5781011410508757  0.0176169087621008  0.2500000000000000
  0.4218988589491245  0.9823830912378992  0.7500000000000000
  0.8406873285590841  0.6074353398199864  0.2500000000000000
  0.1593126714409157  0.3925646601800136  0.7500000000000000
  0.3240034449045851  0.4402251711417817  0.2500000000000000
  0.6759965550954148  0.5597748288582184  0.7500000000000000
  0.8306827628208936  0.2824283560270228  0.2500000000000000
  0.1693172371791064  0.7175716439729771  0.7500000000000000
  0.5758957195853587  0.3647326812004479  0.2500000000000000
  0.4241042804146412  0.6352673187995520  0.7500000000000000
  0.0791152508569452  0.1843030282513253  0.2500000000000000
  0.9208847491430547  0.8156969717486747  0.7500000000000000
 
  0.00000000E+00  0.00000000E+00  0.00000000E+00
  0.00000000E+00  0.00000000E+00  0.00000000E+00
  0.00000000E+00  0.00000000E+00  0.00000000E+00
  0.00000000E+00  0.00000000E+00  0.00000000E+00
  0.00000000E+00  0.00000000E+00  0.00000000E+00
  0.00000000E+00  0.00000000E+00  0.00000000E+00
  0.00000000E+00  0.00000000E+00  0.00000000E+00
  0.00000000E+00  0.00000000E+00  0.00000000E+00
  0.00000000E+00  0.00000000E+00  0.00000000E+00
  0.00000000E+00  0.00000000E+00  0.00000000E+00
  0.00000000E+00  0.00000000E+00  0.00000000E+00
  0.00000000E+00  0.00000000E+00  0.00000000E+00
  0.00000000E+00  0.00000000E+00  0.00000000E+00
  0.00000000E+00  0.00000000E+00  0.00000000E+00
  0.00000000E+00  0.00000000E+00  0.00000000E+00
  0.00000000E+00  0.00000000E+00  0.00000000E+00
  0.00000000E+00  0.00000000E+00  0.00000000E+00
  0.00000000E+00  0.00000000E+00  0.00000000E+00
  0.00000000E+00  0.00000000E+00  0.00000000E+00
  0.00000000E+00  0.00000000E+00  0.00000000E+00
  0.00000000E+00  0.00000000E+00  0.00000000E+00
  0.00000000E+00  0.00000000E+00  0.00000000E+00
  0.00000000E+00  0.00000000E+00  0.00000000E+00
  0.00000000E+00  0.00000000E+00  0.00000000E+00
