#65 (C m m m)                           
   3.60248999995289     
    -0.4988737688719667    1.5105106243948612    0.0000000000000000
    -0.4988737688719667   -1.5105106243948612    0.0000000000000000
     0.0000000000000000    0.0000000000000000    0.9970471184810397
   Co   Ta
     5     1
Direct
  0.5000000000000000  0.5000000000000000  0.5000000000000000
  0.3257313029470675  0.6742686970529325  0.0000000000000000
  0.6742686970529325  0.3257313029470675  0.0000000000000000
  0.1748304512947172  0.8251695487052828  0.5000000000000000
  0.8251695487052828  0.1748304512947172  0.5000000000000000
  0.0000000000000000 -0.0000000000000000 -0.0000000000000000
 
  0.00000000E+00  0.00000000E+00  0.00000000E+00
  0.00000000E+00  0.00000000E+00  0.00000000E+00
  0.00000000E+00  0.00000000E+00  0.00000000E+00
  0.00000000E+00  0.00000000E+00  0.00000000E+00
  0.00000000E+00  0.00000000E+00  0.00000000E+00
  0.00000000E+00  0.00000000E+00  0.00000000E+00
