#6 (P m) [unique axis c]                
   8.85063999635461     
    -0.9982655099160771    0.0000000000000000   -0.0007738314821559
     0.1650913075786476    0.0000000000000000   -0.7042193242959116
     0.0000000000000000   -0.5774608429309595    0.0000000000000000
   Co   Ta
    20     4
Direct
  0.3604490167716214  0.6730444070897157  0.2431939561661905
  0.3604490167716214  0.6730444070897157  0.7568060438338096
  0.8604478413646484  0.6730418761686600  0.7431938054591700
  0.8604478413646484  0.6730418761686600  0.2568061945408300
  0.6423726748900397  0.3480917313067862  0.2482331357921593
  0.6423726748900397  0.3480917313067862  0.7517668642078406
  0.1423723219315501  0.3480941574096194  0.7482346653796652
  0.1423723219315501  0.3480941574096194  0.2517653346203347
  0.6167097140595260  0.6705211403462796  0.5000000000000000
  0.1167030154272332  0.6705436363654285 -0.0000000000000000
  0.2570060873287803  0.0270307315166759  0.2436890154101268
  0.2570060873287803  0.0270307315166759  0.7563109845898732
  0.7570071736410438  0.0270298282979632  0.7436872576604799
  0.7570071736410438  0.0270298282979632  0.2563127423395202
  0.9999244469371845  0.0285820390895422  0.5000000000000000
  0.4999211777640793  0.0285805585151693 -0.0000000000000000
  0.3906556659219741  0.3627196590871661  0.5000000000000000
  0.8906547489805912  0.3627177405805783 -0.0000000000000000
  0.8876705479672752  0.3432938321177127  0.5000000000000000
  0.3876741671650688  0.3432922128375270 -0.0000000000000000
  0.1169124103175698  0.6969947993122951  0.5000000000000000
  0.6169123243399726  0.6969942572271710 -0.0000000000000000
  0.4999878891641015 -0.0001410517205048  0.5000000000000000
 -0.0000163398999565 -0.0001442873371999 -0.0000000000000000
 
  0.00000000E+00  0.00000000E+00  0.00000000E+00
  0.00000000E+00  0.00000000E+00  0.00000000E+00
  0.00000000E+00  0.00000000E+00  0.00000000E+00
  0.00000000E+00  0.00000000E+00  0.00000000E+00
  0.00000000E+00  0.00000000E+00  0.00000000E+00
  0.00000000E+00  0.00000000E+00  0.00000000E+00
  0.00000000E+00  0.00000000E+00  0.00000000E+00
  0.00000000E+00  0.00000000E+00  0.00000000E+00
  0.00000000E+00  0.00000000E+00  0.00000000E+00
  0.00000000E+00  0.00000000E+00  0.00000000E+00
  0.00000000E+00  0.00000000E+00  0.00000000E+00
  0.00000000E+00  0.00000000E+00  0.00000000E+00
  0.00000000E+00  0.00000000E+00  0.00000000E+00
  0.00000000E+00  0.00000000E+00  0.00000000E+00
  0.00000000E+00  0.00000000E+00  0.00000000E+00
  0.00000000E+00  0.00000000E+00  0.00000000E+00
  0.00000000E+00  0.00000000E+00  0.00000000E+00
  0.00000000E+00  0.00000000E+00  0.00000000E+00
  0.00000000E+00  0.00000000E+00  0.00000000E+00
  0.00000000E+00  0.00000000E+00  0.00000000E+00
  0.00000000E+00  0.00000000E+00  0.00000000E+00
  0.00000000E+00  0.00000000E+00  0.00000000E+00
  0.00000000E+00  0.00000000E+00  0.00000000E+00
  0.00000000E+00  0.00000000E+00  0.00000000E+00
