#26 (P m c 21)                          
   4.10000000213655     
     0.9972860758266534    0.0000000000000000    0.0000000000000000
     0.0000000000000000    1.8734594723959295    0.0000000000000000
     0.0000000000000000    0.0000000000000000    2.1796716669531842
   Co   Ta
    20     4
Direct
  0.5000000000000000  0.0067136598300747  0.9068853362629293
  0.5000000000000000  0.9932863401699253  0.4068853362629293
  0.0000000000000000  0.6751538124046365  0.7414125656712049
 -0.0000000000000000  0.3248461875953635  0.2414125656712049
 -0.0000000000000000  0.6656863578014794  0.2547389834948747
 -0.0000000000000000  0.3343136421985206  0.7547389834948747
  0.0000000000000000  0.0062350470420177  0.2441406582404255
  0.0000000000000000  0.9937649529579752  0.7441406582404255
 -0.0000000000000000  0.1547003093726087  0.4804356291551914
 -0.0000000000000000  0.8452996906273913  0.9804356291551914
 -0.0000000000000000  0.1587453014096039  0.9956063837994747
 -0.0000000000000000  0.8412546985903961  0.4956063837994747
  0.5000000000000000  0.5073242681912823  0.6783585814904725
  0.5000000000000000  0.4926757318087177  0.1783585814904724
  0.5000000000000000  0.1736787788840820  0.1562381404638407
  0.5000000000000000  0.8263212211159180  0.6562381404638407
  0.5000000000000000  0.3290633208921916  0.9191418832582617
  0.5000000000000000  0.6709366791078083  0.4191418832582618
  0.5000000000000000  0.6787833241662801  0.8992494350317567
  0.5000000000000000  0.3212166758337200  0.3992494350317566
  0.5000000000000000  0.1718149304622078  0.6546715102119000
  0.5000000000000000  0.8281850695377921  0.1546715102118999
 -0.0000000000000000  0.4876509466338647  0.5000108929196871
 -0.0000000000000000  0.5123490533661353  0.0000108929196871
 
  0.00000000E+00  0.00000000E+00  0.00000000E+00
  0.00000000E+00  0.00000000E+00  0.00000000E+00
  0.00000000E+00  0.00000000E+00  0.00000000E+00
  0.00000000E+00  0.00000000E+00  0.00000000E+00
  0.00000000E+00  0.00000000E+00  0.00000000E+00
  0.00000000E+00  0.00000000E+00  0.00000000E+00
  0.00000000E+00  0.00000000E+00  0.00000000E+00
  0.00000000E+00  0.00000000E+00  0.00000000E+00
  0.00000000E+00  0.00000000E+00  0.00000000E+00
  0.00000000E+00  0.00000000E+00  0.00000000E+00
  0.00000000E+00  0.00000000E+00  0.00000000E+00
  0.00000000E+00  0.00000000E+00  0.00000000E+00
  0.00000000E+00  0.00000000E+00  0.00000000E+00
  0.00000000E+00  0.00000000E+00  0.00000000E+00
  0.00000000E+00  0.00000000E+00  0.00000000E+00
  0.00000000E+00  0.00000000E+00  0.00000000E+00
  0.00000000E+00  0.00000000E+00  0.00000000E+00
  0.00000000E+00  0.00000000E+00  0.00000000E+00
  0.00000000E+00  0.00000000E+00  0.00000000E+00
  0.00000000E+00  0.00000000E+00  0.00000000E+00
  0.00000000E+00  0.00000000E+00  0.00000000E+00
  0.00000000E+00  0.00000000E+00  0.00000000E+00
  0.00000000E+00  0.00000000E+00  0.00000000E+00
  0.00000000E+00  0.00000000E+00  0.00000000E+00
