#6 (P m) [unique axis c]                
   7.75018999710924     
     0.0061365263392330    0.0000000000000000   -1.1441175369477354
    -0.9978689068882340    0.0000000000000000   -0.0003734098776973
     0.0000000000000000    0.5285887010982434    0.0000000000000000
   Co   Ta
    20     4
Direct
  0.9838288463528884  0.3348556922694517  0.0000000000000000
  0.5828274952908378  0.8288669256742780  0.5000000000000000
  0.7544172975983544  0.5047278574203042  0.0000000000000000
  0.3278718105352855  0.3399502838059266  0.5000000000000000
  0.2483021171236875  0.8177009475083077 -0.0000000000000000
  0.7408652307975340  0.8282939543050694  0.0000000000000000
  0.8169949250456142  0.3291250616400304  0.5000000000000000
  0.8248202319309820  0.6761085554386569  0.5000000000000000
  0.9869598432152267  0.6698600301876261  0.0000000000000000
  0.7476110960750664  0.1660154683333457 -0.0000000000000000
  0.5889184123371827  0.1556225235228809  0.5000000000000000
  0.8211322529372509  0.9970929615627693  0.5000000000000000
  0.2369598497265059  0.1869717375963884  0.0000000000000000
  0.0815376463183577  0.8264341682663667  0.5000000000000000
  0.0737837952419506  0.1750406117517119  0.5000000000000000
  0.4978599860527841  0.6737116069020043  0.0000000000000000
  0.5869106731803475  0.5095098767432112  0.5000000000000000
  0.2510571381232031  0.5101060794101017  0.0000000000000000
  0.5043461470388284  0.9902568699228776 -0.0000000000000000
  0.3420135554536461  0.6638142801010881  0.5000000000000000
  0.0783746574849942  0.5008313402061958  0.5000000000000000
  0.3241113212177566  0.0087474473413792  0.5000000000000000
  0.4970730534542789  0.3290086859839557  0.0000000000000000
  0.0000826174674293  0.9993570341060812  0.0000000000000000
 
  0.00000000E+00  0.00000000E+00  0.00000000E+00
  0.00000000E+00  0.00000000E+00  0.00000000E+00
  0.00000000E+00  0.00000000E+00  0.00000000E+00
  0.00000000E+00  0.00000000E+00  0.00000000E+00
  0.00000000E+00  0.00000000E+00  0.00000000E+00
  0.00000000E+00  0.00000000E+00  0.00000000E+00
  0.00000000E+00  0.00000000E+00  0.00000000E+00
  0.00000000E+00  0.00000000E+00  0.00000000E+00
  0.00000000E+00  0.00000000E+00  0.00000000E+00
  0.00000000E+00  0.00000000E+00  0.00000000E+00
  0.00000000E+00  0.00000000E+00  0.00000000E+00
  0.00000000E+00  0.00000000E+00  0.00000000E+00
  0.00000000E+00  0.00000000E+00  0.00000000E+00
  0.00000000E+00  0.00000000E+00  0.00000000E+00
  0.00000000E+00  0.00000000E+00  0.00000000E+00
  0.00000000E+00  0.00000000E+00  0.00000000E+00
  0.00000000E+00  0.00000000E+00  0.00000000E+00
  0.00000000E+00  0.00000000E+00  0.00000000E+00
  0.00000000E+00  0.00000000E+00  0.00000000E+00
  0.00000000E+00  0.00000000E+00  0.00000000E+00
  0.00000000E+00  0.00000000E+00  0.00000000E+00
  0.00000000E+00  0.00000000E+00  0.00000000E+00
  0.00000000E+00  0.00000000E+00  0.00000000E+00
  0.00000000E+00  0.00000000E+00  0.00000000E+00
