#12 (C 2/m) [unique axis c] cell choice 
   8.83610000381107     
     0.1678929593751049    0.0000000000000000   -0.7048560158454853
    -0.4989350674124970    0.2904281459987662   -0.0000894430559236
     0.4989350674124970    0.2904281459987662    0.0000894430559236
   Co   Ta
    10     2
Direct
  0.8290275373012851  0.1327456086645024  0.8672543913354976
  0.1709724626987148  0.8672543913354976  0.1327456086645024
  0.1752589024349313  0.8690194165354874  0.6452291250156224
  0.8247410975650686  0.6452291250156224  0.8690194165354874
  0.8247410975650686  0.1309805834645126  0.3547708749843776
  0.1752589024349313  0.3547708749843776  0.1309805834645126
  0.5000000000000000  0.7629364883327857  0.7629364883327857
  0.5000000000000000  0.2370635116672143  0.2370635116672143
  0.4811898948541922  0.7495421360865393  0.2504578639134607
  0.5188101051458078  0.2504578639134607  0.7495421360865393
  0.1544027539104871  0.3611490531097537  0.6388509468902464
  0.8455972460895129  0.6388509468902464  0.3611490531097537
 
  0.00000000E+00  0.00000000E+00  0.00000000E+00
  0.00000000E+00  0.00000000E+00  0.00000000E+00
  0.00000000E+00  0.00000000E+00  0.00000000E+00
  0.00000000E+00  0.00000000E+00  0.00000000E+00
  0.00000000E+00  0.00000000E+00  0.00000000E+00
  0.00000000E+00  0.00000000E+00  0.00000000E+00
  0.00000000E+00  0.00000000E+00  0.00000000E+00
  0.00000000E+00  0.00000000E+00  0.00000000E+00
  0.00000000E+00  0.00000000E+00  0.00000000E+00
  0.00000000E+00  0.00000000E+00  0.00000000E+00
  0.00000000E+00  0.00000000E+00  0.00000000E+00
  0.00000000E+00  0.00000000E+00  0.00000000E+00
