#12 (C 2/m) [unique axis c] cell choice 
   12.0441899974969     
     0.2932100400919649    0.0000000000000000   -0.7562019481002940
    -0.4989098800333224    0.2134021365090133   -0.0006125155165545
     0.4989098800333224    0.2134021365090133    0.0006125155165545
   Co   Ta
    20     4
Direct
  0.1823109043173150  0.2874099902378167  0.2397423770516813
  0.8177355720081415  0.2397746407545119  0.2874340391845329
  0.8177355720081415  0.7125659608154670  0.7602253592454881
  0.1823109043173150  0.7602576229483187  0.7125900097621831
  0.9651789865612215  0.3829931377110334  0.6170068622889667
  0.0348508269928637  0.6170028609861926  0.3829971390138074
  0.1296872333422212  0.0585110655308641  0.4548615142764423
  0.8703571825205439  0.4548954725403971  0.0585367578814832
  0.8703571825205439  0.9414632421185168  0.5451045274596029
  0.1296872333422212  0.5451384857235575  0.9414889344691361
  0.5292791219257159  0.1218191564394130  0.3914226343915120
  0.4707423322818960  0.3914170415328443  0.1218248823432927
  0.4707423322818960  0.8781751176567073  0.6085829584671556
  0.5292791219257159  0.6085773656084880  0.8781808435605871
  0.0179421896494287  0.1058036989392108  0.8941963010607893
  0.9820827758078607  0.8941998233709720  0.1058001766290279
  0.3603359539653052  0.4496912916187544  0.5503087083812459
  0.6396915386047726  0.5503088685130698  0.4496911314869301
  0.6926985965933868  0.2829943266095690  0.7170056733904311
  0.3073225368824486  0.7169929176347647  0.2830070823652353
  0.3434242971419650  0.9368777991964750  0.0631222008035251
  0.6566339096218352  0.0631228295879496  0.9368771704120504
  0.3069791308066655  0.2206707826831339  0.7793292173168661
  0.6930545645805558  0.7793365012419649  0.2206634987580352
 
  0.00000000E+00  0.00000000E+00  0.00000000E+00
  0.00000000E+00  0.00000000E+00  0.00000000E+00
  0.00000000E+00  0.00000000E+00  0.00000000E+00
  0.00000000E+00  0.00000000E+00  0.00000000E+00
  0.00000000E+00  0.00000000E+00  0.00000000E+00
  0.00000000E+00  0.00000000E+00  0.00000000E+00
  0.00000000E+00  0.00000000E+00  0.00000000E+00
  0.00000000E+00  0.00000000E+00  0.00000000E+00
  0.00000000E+00  0.00000000E+00  0.00000000E+00
  0.00000000E+00  0.00000000E+00  0.00000000E+00
  0.00000000E+00  0.00000000E+00  0.00000000E+00
  0.00000000E+00  0.00000000E+00  0.00000000E+00
  0.00000000E+00  0.00000000E+00  0.00000000E+00
  0.00000000E+00  0.00000000E+00  0.00000000E+00
  0.00000000E+00  0.00000000E+00  0.00000000E+00
  0.00000000E+00  0.00000000E+00  0.00000000E+00
  0.00000000E+00  0.00000000E+00  0.00000000E+00
  0.00000000E+00  0.00000000E+00  0.00000000E+00
  0.00000000E+00  0.00000000E+00  0.00000000E+00
  0.00000000E+00  0.00000000E+00  0.00000000E+00
  0.00000000E+00  0.00000000E+00  0.00000000E+00
  0.00000000E+00  0.00000000E+00  0.00000000E+00
  0.00000000E+00  0.00000000E+00  0.00000000E+00
  0.00000000E+00  0.00000000E+00  0.00000000E+00
