#139-I4/m2/m2/m                         
  0.999999999418767     
     3.6080260622910743    0.0000000000000000    0.0000000000000000
     0.0000000000000000    3.6080260622910743    0.0000000000000000
     0.0000000000000000   -0.0000000000000000   21.7072957313785615
   Co   Ta
    20     4
Direct
 -0.0000000000000000  0.0000000000000000  0.5000000000000000
  0.5000000000000000  0.5000000000000000  0.0000000000000000
 -0.0000000000000000  0.5000000000000000  0.4228667806155847
  0.0000000000000000  0.5000000000000000  0.5771332193844153
  0.5000000000000000  0.0000000000000000  0.5771332193844153
  0.5000000000000000 -0.0000000000000000  0.4228667806155847
  0.5000000000000000 -0.0000000000000000  0.9228667806155847
  0.5000000000000000  0.0000000000000000  0.0771332193844153
 -0.0000000000000000  0.5000000000000000  0.0771332193844153
  0.0000000000000000  0.5000000000000000  0.9228667806155847
  0.0000000000000000  0.5000000000000000  0.2500000000000000
 -0.0000000000000000  0.5000000000000000  0.7500000000000000
  0.5000000000000000 -0.0000000000000000  0.7500000000000000
  0.5000000000000000 -0.0000000000000000  0.2500000000000000
 -0.0000000000000000  0.0000000000000000  0.3359006307393941
 -0.0000000000000000 -0.0000000000000000  0.6640993692606060
  0.5000000000000000  0.5000000000000000  0.8359006307393940
  0.5000000000000000  0.5000000000000000  0.1640993692606059
 -0.0000000000000000  0.0000000000000000  0.0000000000000000
  0.5000000000000000  0.5000000000000000  0.5000000000000000
  0.0000000000000000 -0.0000000000000000  0.1649954174922789
 -0.0000000000000000  0.0000000000000000  0.8350045825077211
  0.5000000000000000  0.5000000000000000  0.6649954174922789
  0.5000000000000000  0.5000000000000000  0.3350045825077210
 
  0.00000000E+00  0.00000000E+00  0.00000000E+00
  0.00000000E+00  0.00000000E+00  0.00000000E+00
  0.00000000E+00  0.00000000E+00  0.00000000E+00
  0.00000000E+00  0.00000000E+00  0.00000000E+00
  0.00000000E+00  0.00000000E+00  0.00000000E+00
  0.00000000E+00  0.00000000E+00  0.00000000E+00
  0.00000000E+00  0.00000000E+00  0.00000000E+00
  0.00000000E+00  0.00000000E+00  0.00000000E+00
  0.00000000E+00  0.00000000E+00  0.00000000E+00
  0.00000000E+00  0.00000000E+00  0.00000000E+00
  0.00000000E+00  0.00000000E+00  0.00000000E+00
  0.00000000E+00  0.00000000E+00  0.00000000E+00
  0.00000000E+00  0.00000000E+00  0.00000000E+00
  0.00000000E+00  0.00000000E+00  0.00000000E+00
  0.00000000E+00  0.00000000E+00  0.00000000E+00
  0.00000000E+00  0.00000000E+00  0.00000000E+00
  0.00000000E+00  0.00000000E+00  0.00000000E+00
  0.00000000E+00  0.00000000E+00  0.00000000E+00
  0.00000000E+00  0.00000000E+00  0.00000000E+00
  0.00000000E+00  0.00000000E+00  0.00000000E+00
  0.00000000E+00  0.00000000E+00  0.00000000E+00
  0.00000000E+00  0.00000000E+00  0.00000000E+00
  0.00000000E+00  0.00000000E+00  0.00000000E+00
  0.00000000E+00  0.00000000E+00  0.00000000E+00
