#129 (P 4/n m m) [origin choice 2]      
   3.61394999850667     
     0.9992296242177133    0.0000000000000000   -0.0000000000000000
    -0.0000000000000000    0.9992296242177133   -0.0000000000000000
     0.0000000000000000    0.0000000000000000    2.9847224008533169
   Co   Ta
    10     2
Direct
  0.2500000000000000  0.2500000000000000  0.6733889808285372
  0.7500000000000000  0.7500000000000000  0.3266110191714628
  0.7500000000000000  0.2500000000000000  0.5000000000000000
  0.2500000000000000  0.7500000000000000  0.5000000000000000
  0.7500000000000000  0.2500000000000000  0.1539176892333161
  0.2500000000000000  0.7500000000000000  0.8460823107666838
  0.7500000000000000  0.2500000000000000  0.8460823107666838
  0.2500000000000000  0.7500000000000000  0.1539176892333161
  0.2500000000000000  0.2500000000000000  0.9999472174020891
  0.7500000000000000  0.7500000000000000  0.0000527825979109
  0.2500000000000000  0.2500000000000000  0.3309405476630826
  0.7500000000000000  0.7500000000000000  0.6690594523369175
 
  0.00000000E+00  0.00000000E+00  0.00000000E+00
  0.00000000E+00  0.00000000E+00  0.00000000E+00
  0.00000000E+00  0.00000000E+00  0.00000000E+00
  0.00000000E+00  0.00000000E+00  0.00000000E+00
  0.00000000E+00  0.00000000E+00  0.00000000E+00
  0.00000000E+00  0.00000000E+00  0.00000000E+00
  0.00000000E+00  0.00000000E+00  0.00000000E+00
  0.00000000E+00  0.00000000E+00  0.00000000E+00
  0.00000000E+00  0.00000000E+00  0.00000000E+00
  0.00000000E+00  0.00000000E+00  0.00000000E+00
  0.00000000E+00  0.00000000E+00  0.00000000E+00
  0.00000000E+00  0.00000000E+00  0.00000000E+00
