#6 (P m) [unique axis c]                
   6.82050000287964     
     0.2782826426186628    0.0000000000000000   -1.4777141520699766
    -0.9981688077424027    0.0000000000000000   -0.0001513782553946
     0.0000000000000000    0.6013738570964928    0.0000000000000000
   Co   Ta
    20     4
Direct
  0.2971591338819007  0.4340830611348062  0.5000000000000000
  0.7897524569692369  0.4019230045580988  0.5000000000000000
  0.2138599852243210  0.7652756283155593  0.5000000000000000
  0.6237034361017416  0.0783614939544746  0.5000000000000000
  0.8641336429934595  0.0803975557982324  0.5000000000000000
  0.4553803859557059  0.7678257620399025  0.5000000000000000
  0.3785386993147575  0.0878812518779598  0.5000000000000000
  0.9632949644692024  0.7588955234246689  0.5000000000000000
  0.7076500546957868  0.7692894518947234  0.5000000000000000
  0.1454819572983166  0.0933092419243630  0.5000000000000000
  0.2494604021883781  0.9744614807415778 -0.0000000000000000
  0.7329254664575066  0.9767145317359447  0.0000000000000000
  0.3231446026941842  0.6445708331946124  0.0000000000000000
  0.1701313405607262  0.3176149952998035  0.0000000000000000
  0.0827676625001476  0.6514709711700299 -0.0000000000000000
  0.8966805970866460  0.3019216440428243 -0.0000000000000000
  0.3999380745140056  0.3073435449356421 -0.0000000000000000
  0.5638193889513717  0.6608679032558258  0.0000000000000000
  0.6541131603933539  0.2921195169500240 -0.0000000000000000
  0.4884479831348749  0.9849854499120025  0.0000000000000000
  0.0404125578665113  0.4156296254477570  0.5000000000000000
  0.5482282052866685  0.4292276405617551  0.5000000000000000
  0.8131718140852849  0.6259858505248875  0.0000000000000000
  0.9995540273759108  0.9996440373044898 -0.0000000000000000
 
  0.00000000E+00  0.00000000E+00  0.00000000E+00
  0.00000000E+00  0.00000000E+00  0.00000000E+00
  0.00000000E+00  0.00000000E+00  0.00000000E+00
  0.00000000E+00  0.00000000E+00  0.00000000E+00
  0.00000000E+00  0.00000000E+00  0.00000000E+00
  0.00000000E+00  0.00000000E+00  0.00000000E+00
  0.00000000E+00  0.00000000E+00  0.00000000E+00
  0.00000000E+00  0.00000000E+00  0.00000000E+00
  0.00000000E+00  0.00000000E+00  0.00000000E+00
  0.00000000E+00  0.00000000E+00  0.00000000E+00
  0.00000000E+00  0.00000000E+00  0.00000000E+00
  0.00000000E+00  0.00000000E+00  0.00000000E+00
  0.00000000E+00  0.00000000E+00  0.00000000E+00
  0.00000000E+00  0.00000000E+00  0.00000000E+00
  0.00000000E+00  0.00000000E+00  0.00000000E+00
  0.00000000E+00  0.00000000E+00  0.00000000E+00
  0.00000000E+00  0.00000000E+00  0.00000000E+00
  0.00000000E+00  0.00000000E+00  0.00000000E+00
  0.00000000E+00  0.00000000E+00  0.00000000E+00
  0.00000000E+00  0.00000000E+00  0.00000000E+00
  0.00000000E+00  0.00000000E+00  0.00000000E+00
  0.00000000E+00  0.00000000E+00  0.00000000E+00
  0.00000000E+00  0.00000000E+00  0.00000000E+00
  0.00000000E+00  0.00000000E+00  0.00000000E+00
