#11 (P 21/m) [unique axis c]            
   5.10308999561903     
     0.2468461350459897    0.0000000000000000   -1.3139654707857424
    -0.9990382239831473    0.0000000000000000    0.0004485293229512
     0.0000000000000000    0.8025467674131084    0.0000000000000000
   Co   Ta
    10     2
Direct
  0.3723379585607058  0.7182727434799134  0.2500000000000000
  0.6276620414392942  0.2817272565200865  0.7500000000000000
  0.0450571619419845  0.8842507774124033  0.2500000000000000
  0.9549428380580155  0.1157492225875967  0.7500000000000000
  0.0507384791319164  0.3899302116912812  0.2500000000000000
  0.9492615208680837  0.6100697883087187  0.7500000000000000
  0.7380865632703917  0.5532514272052250  0.2500000000000000
  0.2619134367296082  0.4467485727947750  0.7500000000000000
  0.7391898114150619  0.0642284804994988  0.2500000000000000
  0.2608101885849382  0.9357715195005012  0.7500000000000000
  0.3975576530333463  0.2234957000222724  0.2500000000000000
  0.6024423469666537  0.7765042999777276  0.7500000000000000
 
  0.00000000E+00  0.00000000E+00  0.00000000E+00
  0.00000000E+00  0.00000000E+00  0.00000000E+00
  0.00000000E+00  0.00000000E+00  0.00000000E+00
  0.00000000E+00  0.00000000E+00  0.00000000E+00
  0.00000000E+00  0.00000000E+00  0.00000000E+00
  0.00000000E+00  0.00000000E+00  0.00000000E+00
  0.00000000E+00  0.00000000E+00  0.00000000E+00
  0.00000000E+00  0.00000000E+00  0.00000000E+00
  0.00000000E+00  0.00000000E+00  0.00000000E+00
  0.00000000E+00  0.00000000E+00  0.00000000E+00
  0.00000000E+00  0.00000000E+00  0.00000000E+00
  0.00000000E+00  0.00000000E+00  0.00000000E+00
