#51 (P m m a)                           
   5.12571000067339     
    -0.9987212365517891    0.0000000000000000    0.0000000000000000
     0.0000000000000000   -0.6989572666502969    0.0000000000000000
    -0.0000000000000000    0.0000000000000000    1.4943403823073493
   Co   Ta
    10     2
Direct
  0.4870290276830102  0.5000000000000000  0.1577425112384946
  0.9870290276830102  0.5000000000000000  0.8422574887615054
  0.5129709723169898  0.5000000000000000  0.8422574887615054
  0.0129709723169898  0.5000000000000000  0.1577425112384946
  0.7500000000000000 -0.0000000000000000  0.6767873519319911
  0.2500000000000000 -0.0000000000000000  0.3232126480680089
 -0.0000000000000000  0.5000000000000000  0.5000000000000000
  0.5000000000000000  0.5000000000000000  0.5000000000000000
  0.7500000000000000 -0.0000000000000000  0.9922340301719068
  0.2500000000000000 -0.0000000000000000  0.0077659698280933
  0.7500000000000000 -0.0000000000000000  0.3366498869477016
  0.2500000000000000 -0.0000000000000000  0.6633501130522984
 
  0.00000000E+00  0.00000000E+00  0.00000000E+00
  0.00000000E+00  0.00000000E+00  0.00000000E+00
  0.00000000E+00  0.00000000E+00  0.00000000E+00
  0.00000000E+00  0.00000000E+00  0.00000000E+00
  0.00000000E+00  0.00000000E+00  0.00000000E+00
  0.00000000E+00  0.00000000E+00  0.00000000E+00
  0.00000000E+00  0.00000000E+00  0.00000000E+00
  0.00000000E+00  0.00000000E+00  0.00000000E+00
  0.00000000E+00  0.00000000E+00  0.00000000E+00
  0.00000000E+00  0.00000000E+00  0.00000000E+00
  0.00000000E+00  0.00000000E+00  0.00000000E+00
  0.00000000E+00  0.00000000E+00  0.00000000E+00
