#12 (C 2/m) [unique axis c] cell choice 
   11.9348000047483     
     0.1472755918499292    0.0000000000000000   -0.3738469511145170
    -0.4996661410791597    0.1707604173576251    0.0003737881931017
     0.4996661410791597    0.1707604173576251   -0.0003737881931017
   Fe   Ta
     8     1
Direct
  0.1168039947327456  0.2265988069742463  0.7734011930257537
  0.8831960052672544  0.7734011930257537  0.2265988069742463
  0.7683577846819469  0.5574890423790430  0.4425109576209570
  0.2316422153180532  0.4425109576209570  0.5574890423790430
  0.3337111360858326  0.6676772312770819  0.3323227687229181
  0.6662888639141674  0.3323227687229181  0.6676772312770819
  0.5652116063222311  0.1154906487851252  0.8845093512148747
  0.4347883936777689  0.8845093512148747  0.1154906487851252
  0.0000000000000000  0.0000000000000000 -0.0000000000000000
 
  0.00000000E+00  0.00000000E+00  0.00000000E+00
  0.00000000E+00  0.00000000E+00  0.00000000E+00
  0.00000000E+00  0.00000000E+00  0.00000000E+00
  0.00000000E+00  0.00000000E+00  0.00000000E+00
  0.00000000E+00  0.00000000E+00  0.00000000E+00
  0.00000000E+00  0.00000000E+00  0.00000000E+00
  0.00000000E+00  0.00000000E+00  0.00000000E+00
  0.00000000E+00  0.00000000E+00  0.00000000E+00
  0.00000000E+00  0.00000000E+00  0.00000000E+00
