#11 (P 21/m) [unique axis c]            
   7.48102999647831     
     0.3342341224907207    0.0000000000000000   -0.9473346214745348
    -1.0028904799977119    0.0000000000000000    0.0013641056394473
     0.0000000000000000    0.5452646201654187    0.0000000000000000
   Fe   Ta
    16     2
Direct
  0.2500149998599760  0.4224808842347734  0.2500000000000000
  0.7499708514636000  0.5775121797087815  0.7500000000000000
  0.5859497450802238  0.4188636585214113  0.2500000000000000
  0.4140356778092350  0.5811295143643223  0.7500000000000000
  0.2469363539726694  0.7430948279388382  0.2500000000000000
  0.7530525321468667  0.2569040150228452  0.7500000000000000
  0.5742646283263850  0.7418077890527078  0.2500000000000000
  0.4257312464905371  0.2582038819870949  0.7500000000000000
  0.9174988068275824  0.4187535224175263  0.2500000000000000
  0.0824850872251893  0.5812484830682453  0.7500000000000000
  0.9188013456445492  0.0936525051458305  0.2500000000000000
  0.0811894903575923  0.9063482818809047  0.7500000000000000
  0.9136848239211283  0.7442422177470199  0.2500000000000000
  0.0863002597893289  0.2557585181094965  0.7500000000000000
  0.5895412559901264  0.0863370664749813  0.2500000000000000
  0.4104519312108645  0.9136652683078483  0.7500000000000000
  0.2503676443793437  0.0841170310610658  0.2500000000000000
  0.7496233195047984  0.9158803549562925  0.7500000000000000
 
  0.00000000E+00  0.00000000E+00  0.00000000E+00
  0.00000000E+00  0.00000000E+00  0.00000000E+00
  0.00000000E+00  0.00000000E+00  0.00000000E+00
  0.00000000E+00  0.00000000E+00  0.00000000E+00
  0.00000000E+00  0.00000000E+00  0.00000000E+00
  0.00000000E+00  0.00000000E+00  0.00000000E+00
  0.00000000E+00  0.00000000E+00  0.00000000E+00
  0.00000000E+00  0.00000000E+00  0.00000000E+00
  0.00000000E+00  0.00000000E+00  0.00000000E+00
  0.00000000E+00  0.00000000E+00  0.00000000E+00
  0.00000000E+00  0.00000000E+00  0.00000000E+00
  0.00000000E+00  0.00000000E+00  0.00000000E+00
  0.00000000E+00  0.00000000E+00  0.00000000E+00
  0.00000000E+00  0.00000000E+00  0.00000000E+00
  0.00000000E+00  0.00000000E+00  0.00000000E+00
  0.00000000E+00  0.00000000E+00  0.00000000E+00
  0.00000000E+00  0.00000000E+00  0.00000000E+00
  0.00000000E+00  0.00000000E+00  0.00000000E+00
