#12 (C 2/m) [unique axis c] cell choice 
   8.69982001145264     
     0.4944308284056701    0.0000000000000000   -0.7058838667078706
    -0.4984503666394166    0.2341603623469214   -0.0003869814260264
     0.4984503666394166    0.2341603623469214    0.0003869814260264
   Fe   Ta
     8     1
Direct
  0.1165084366954194  0.3410761018622093  0.6589238981377905
  0.8834915633045806  0.6589238981377905  0.3410761018622093
  0.3396677395946967  0.0026032329259878  0.9973967670740124
  0.6603322604053032  0.9973967670740124  0.0026032329259878
  0.5533853784452006  0.6643717166894699  0.3356282833105301
  0.4466146215547994  0.3356282833105301  0.6643717166894699
  0.7665334655696832  0.3227999455093040  0.6772000544906959
  0.2334665344303170  0.6772000544906959  0.3227999455093040
  0.0000000000000000  0.0000000000000000 -0.0000000000000000
 
  0.00000000E+00  0.00000000E+00  0.00000000E+00
  0.00000000E+00  0.00000000E+00  0.00000000E+00
  0.00000000E+00  0.00000000E+00  0.00000000E+00
  0.00000000E+00  0.00000000E+00  0.00000000E+00
  0.00000000E+00  0.00000000E+00  0.00000000E+00
  0.00000000E+00  0.00000000E+00  0.00000000E+00
  0.00000000E+00  0.00000000E+00  0.00000000E+00
  0.00000000E+00  0.00000000E+00  0.00000000E+00
  0.00000000E+00  0.00000000E+00  0.00000000E+00
