#148-R-3(hexagonalaxes)                 
   1.00000000008060     
     7.0651020412739021   -0.0001135343291519    0.0000007901970597
    -3.5326493382219049    6.1184967140758983   -0.0000053001199140
     0.0000016998997626   -0.0000119922265418   15.0154104843167904
   Fe   Ta
    48     6
Direct
  0.0000014426639959 -0.0000000840748177  0.1632653403450490
 -0.0000014426639959  0.0000000840748177  0.8367346596549511
  0.3333332723249037  0.6666691294120497  0.8297887728372602
  0.3333321561038461  0.6666659049005610  0.5033891904551842
  0.6666678438961539  0.3333340950994391  0.4966108095448158
  0.6666667276750964  0.3333308705879504  0.1702112271627399
  0.6659232607601604  0.0075115395222366  0.2750361827363334
  0.9924885855071673  0.6584071871349310  0.2750378844683248
  0.3415940275192249  0.3340845822232503  0.2750369759327967
  0.3340767392398398  0.9924884604777634  0.7249638172636668
  0.0075114144928326  0.3415928128650690  0.7249621155316751
  0.6584059724807750  0.6659154177767497  0.7249630240672035
  0.9992472020756171  0.6742826718418158  0.9416588831028397
  0.3257184538983202  0.3249622316905261  0.9416602527745020
  0.6750395429960560  0.0007621553284025  0.9416586026576743
  0.6674187023000404  0.6590559911612834  0.3916246290375792
  0.3409433044716584  0.0083661371491459  0.3916238398980099
  0.9916350185881568  0.3325733821229201  0.3916243601846338
  0.3325812976999597  0.3409440088387167  0.6083753709624208
  0.6590566955283415  0.9916338628508541  0.6083761601019902
  0.0083649814118432  0.6674266178770799  0.6083756398153662
  0.0007527979243830  0.3257173281581843  0.0583411168971602
  0.6742815461016798  0.6750377683094739  0.0583397472254980
  0.3249604570039438  0.9992378446715974  0.0583413973423258
  0.9994346359450921  0.6658282377169865  0.1120311992015629
  0.3341708116399151  0.3336054021925636  0.1120320706342673
  0.6663963544885927  0.0005651293142188  0.1120303484985502
  0.0005653640549081  0.3341717622830135  0.8879688007984371
  0.6658291883600849  0.6663945978074364  0.8879679293657327
  0.3336036455114073  0.9994348706857811  0.8879696515014497
  0.3328452241295589  0.3325879281874979  0.7785962203299565
  0.6674118767819504  0.0002577555450203  0.7785949640264833
  0.9997413100283763  0.6671570893894317  0.7785953365091803
  0.3338582638105169  0.0007700772168117  0.5546069342465763
  0.9992290815568218  0.3330871240353205  0.5546065955911487
  0.6669133488082406  0.6661406058297474  0.5546067463228527
  0.6661417361894829  0.9992299227831882  0.4453930657534238
  0.0007709184431784  0.6669128759646794  0.4453934044088513
  0.3330866511917595  0.3338593941702527  0.4453932536771472
  0.6671547758704411  0.6674120718125022  0.2214037796700434
  0.3325881232180495  0.9997422444549797  0.2214050359735168
  0.0002586899716236  0.3328429106105683  0.2214046634908198
 -0.0000000000000000 -0.0000000000000000  0.5000000000000000
  0.3333342943217523  0.6666666231785753  0.1666274496783825
  0.6666657056782477  0.3333333768214247  0.8333725503216175
 -0.0000000000000000 -0.0000000000000000 -0.0000000000000000
  0.3333327819400909  0.6666667576820944  0.6666047466033530
  0.6666672180599093  0.3333332423179056  0.3333952533966471
 -0.0000006837336847  0.0000014929441997  0.6678751839772039
  0.0000006837336847 -0.0000014929441997  0.3321248160227962
  0.3333336684495460  0.6666679933099177  0.3345676614074011
  0.3333321030172355  0.6666699987027905  0.9987068267500594
  0.6666678969827646  0.3333300012972095  0.0012931732499406
  0.6666663315504540  0.3333320066900822  0.6654323385925989
 
  0.00000000E+00  0.00000000E+00  0.00000000E+00
  0.00000000E+00  0.00000000E+00  0.00000000E+00
  0.00000000E+00  0.00000000E+00  0.00000000E+00
  0.00000000E+00  0.00000000E+00  0.00000000E+00
  0.00000000E+00  0.00000000E+00  0.00000000E+00
  0.00000000E+00  0.00000000E+00  0.00000000E+00
  0.00000000E+00  0.00000000E+00  0.00000000E+00
  0.00000000E+00  0.00000000E+00  0.00000000E+00
  0.00000000E+00  0.00000000E+00  0.00000000E+00
  0.00000000E+00  0.00000000E+00  0.00000000E+00
  0.00000000E+00  0.00000000E+00  0.00000000E+00
  0.00000000E+00  0.00000000E+00  0.00000000E+00
  0.00000000E+00  0.00000000E+00  0.00000000E+00
  0.00000000E+00  0.00000000E+00  0.00000000E+00
  0.00000000E+00  0.00000000E+00  0.00000000E+00
  0.00000000E+00  0.00000000E+00  0.00000000E+00
  0.00000000E+00  0.00000000E+00  0.00000000E+00
  0.00000000E+00  0.00000000E+00  0.00000000E+00
  0.00000000E+00  0.00000000E+00  0.00000000E+00
  0.00000000E+00  0.00000000E+00  0.00000000E+00
  0.00000000E+00  0.00000000E+00  0.00000000E+00
  0.00000000E+00  0.00000000E+00  0.00000000E+00
  0.00000000E+00  0.00000000E+00  0.00000000E+00
  0.00000000E+00  0.00000000E+00  0.00000000E+00
  0.00000000E+00  0.00000000E+00  0.00000000E+00
  0.00000000E+00  0.00000000E+00  0.00000000E+00
  0.00000000E+00  0.00000000E+00  0.00000000E+00
  0.00000000E+00  0.00000000E+00  0.00000000E+00
  0.00000000E+00  0.00000000E+00  0.00000000E+00
  0.00000000E+00  0.00000000E+00  0.00000000E+00
  0.00000000E+00  0.00000000E+00  0.00000000E+00
  0.00000000E+00  0.00000000E+00  0.00000000E+00
  0.00000000E+00  0.00000000E+00  0.00000000E+00
  0.00000000E+00  0.00000000E+00  0.00000000E+00
  0.00000000E+00  0.00000000E+00  0.00000000E+00
  0.00000000E+00  0.00000000E+00  0.00000000E+00
  0.00000000E+00  0.00000000E+00  0.00000000E+00
  0.00000000E+00  0.00000000E+00  0.00000000E+00
  0.00000000E+00  0.00000000E+00  0.00000000E+00
  0.00000000E+00  0.00000000E+00  0.00000000E+00
  0.00000000E+00  0.00000000E+00  0.00000000E+00
  0.00000000E+00  0.00000000E+00  0.00000000E+00
  0.00000000E+00  0.00000000E+00  0.00000000E+00
  0.00000000E+00  0.00000000E+00  0.00000000E+00
  0.00000000E+00  0.00000000E+00  0.00000000E+00
  0.00000000E+00  0.00000000E+00  0.00000000E+00
  0.00000000E+00  0.00000000E+00  0.00000000E+00
  0.00000000E+00  0.00000000E+00  0.00000000E+00
  0.00000000E+00  0.00000000E+00  0.00000000E+00
  0.00000000E+00  0.00000000E+00  0.00000000E+00
  0.00000000E+00  0.00000000E+00  0.00000000E+00
  0.00000000E+00  0.00000000E+00  0.00000000E+00
  0.00000000E+00  0.00000000E+00  0.00000000E+00
  0.00000000E+00  0.00000000E+00  0.00000000E+00
