#69 (F m m m)                           
   12.1647500101163     
    -0.5006152437694732    0.0000000000000000    0.3592854931634688
    -0.5006152437694732   -0.1675216046570784    0.0000000000000000
     0.0000000000000000   -0.1675216046570784    0.3592854931634688
   Fe   Ta
     8     1
Direct
  0.3385699848726694  0.0012128760695492  0.9987871239304508
  0.0012128760695492  0.3385699848726694  0.6614300151273306
  0.6614300151273306  0.9987871239304508  0.0012128760695492
  0.9987871239304508  0.6614300151273306  0.3385699848726694
  0.6714446196078083  0.3285553803921916  0.6714446196078083
  0.3285553803921916  0.6714446196078083  0.3285553803921916
  0.6682436610613681  0.6682436610613681  0.3317563389386319
  0.3317563389386319  0.3317563389386319  0.6682436610613681
  0.0000000000000000  0.0000000000000000 -0.0000000000000000
 
  0.00000000E+00  0.00000000E+00  0.00000000E+00
  0.00000000E+00  0.00000000E+00  0.00000000E+00
  0.00000000E+00  0.00000000E+00  0.00000000E+00
  0.00000000E+00  0.00000000E+00  0.00000000E+00
  0.00000000E+00  0.00000000E+00  0.00000000E+00
  0.00000000E+00  0.00000000E+00  0.00000000E+00
  0.00000000E+00  0.00000000E+00  0.00000000E+00
  0.00000000E+00  0.00000000E+00  0.00000000E+00
  0.00000000E+00  0.00000000E+00  0.00000000E+00
