#164 (P -3 m 1)                         
   4.08254000036840     
     0.9993122250342736    0.0000000000000000    0.0000000000000000
    -0.4996561125171368    0.8654140649262395   -0.0000014860076975
     0.0000000000000000   -0.0000032407440935    1.8414501485301658
   Fe   Ta
     8     1
Direct
 -0.0000031593722735  0.0000004508426177  0.3401944316641167
 -0.0000036102148912 -0.0000004508426177  0.6598055683358834
  0.3333303701185611  0.6666672085892067  0.4456871949090029
  0.6666631615293614  0.3333327914107933  0.5543128050909971
  0.3333303736659867  0.6666673685178179  0.7720626131202731
  0.6666630051481758  0.3333326314821819  0.2279373868797270
  0.3333312790252936  0.6666696338818491  0.1215396157958125
  0.6666616451434515  0.3333303661181508  0.8784603842041876
 -0.0000030650436750  0.0000000000000000  0.0000000000000000
 
  0.00000000E+00  0.00000000E+00  0.00000000E+00
  0.00000000E+00  0.00000000E+00  0.00000000E+00
  0.00000000E+00  0.00000000E+00  0.00000000E+00
  0.00000000E+00  0.00000000E+00  0.00000000E+00
  0.00000000E+00  0.00000000E+00  0.00000000E+00
  0.00000000E+00  0.00000000E+00  0.00000000E+00
  0.00000000E+00  0.00000000E+00  0.00000000E+00
  0.00000000E+00  0.00000000E+00  0.00000000E+00
  0.00000000E+00  0.00000000E+00  0.00000000E+00
