#65-C2/m2/m2/m                          
  0.999999999951762     
     8.7127889511987355    0.0000000000000000    0.0000000000000000
     0.0000000000000000   12.2346086800612728    0.0000000000000000
    -0.0000000000000000    0.0000000000000000    4.0675959409549742
   Fe   Ta
    32     4
Direct
  0.0000000000000000  0.3339279104413411  0.5000000000000000
  0.0000000000000000  0.6660720895586589  0.5000000000000000
  0.5000000000000000  0.8339279104413411  0.5000000000000000
  0.5000000000000000  0.1660720895586589  0.5000000000000000
  0.1747248451339490  0.1659084133681813  0.5000000000000000
  0.1747248451339490  0.8340915866318187  0.5000000000000000
  0.8252751548660510  0.1659084133681813  0.5000000000000000
  0.8252751548660510  0.8340915866318187  0.5000000000000000
  0.6747248451339490  0.6659084133681813  0.5000000000000000
  0.6747248451339490  0.3340915866318188  0.5000000000000000
  0.3252751548660510  0.6659084133681813  0.5000000000000000
  0.3252751548660510  0.3340915866318188  0.5000000000000000
  0.1756254475702083 -0.0000000000000000  0.0000000000000000
  0.8243745524297917  0.0000000000000000  0.0000000000000000
  0.6756254475702083  0.5000000000000000  0.0000000000000000
  0.3243745524297917  0.5000000000000000  0.0000000000000000
  0.3344702130744729  0.1636396941272969  0.0000000000000000
  0.3344702130744729  0.8363603058727032  0.0000000000000000
  0.6655297869255270  0.1636396941272969 -0.0000000000000000
  0.6655297869255270  0.8363603058727032 -0.0000000000000000
  0.8344702130744730  0.6636396941272968 -0.0000000000000000
  0.8344702130744730  0.3363603058727031  0.0000000000000000
  0.1655297869255270  0.6636396941272968  0.0000000000000000
  0.1655297869255270  0.3363603058727031 -0.0000000000000000
  0.6633535315329521  0.0000000000000000  0.5000000000000000
  0.3366464684670480 -0.0000000000000000  0.5000000000000000
  0.1633535315329520  0.5000000000000000  0.5000000000000000
  0.8366464684670479  0.5000000000000000  0.5000000000000000
  0.5000000000000000  0.0000000000000000  0.0000000000000000
  0.0000000000000000  0.5000000000000000  0.0000000000000000
  0.0000000000000000  0.0000000000000000  0.5000000000000000
  0.5000000000000000  0.5000000000000000  0.5000000000000000
  0.0000000000000000  0.1652031779988290 -0.0000000000000000
  0.0000000000000000  0.8347968220011710 -0.0000000000000000
  0.5000000000000000  0.6652031779988290  0.0000000000000000
  0.5000000000000000  0.3347968220011710  0.0000000000000000
 
  0.00000000E+00  0.00000000E+00  0.00000000E+00
  0.00000000E+00  0.00000000E+00  0.00000000E+00
  0.00000000E+00  0.00000000E+00  0.00000000E+00
  0.00000000E+00  0.00000000E+00  0.00000000E+00
  0.00000000E+00  0.00000000E+00  0.00000000E+00
  0.00000000E+00  0.00000000E+00  0.00000000E+00
  0.00000000E+00  0.00000000E+00  0.00000000E+00
  0.00000000E+00  0.00000000E+00  0.00000000E+00
  0.00000000E+00  0.00000000E+00  0.00000000E+00
  0.00000000E+00  0.00000000E+00  0.00000000E+00
  0.00000000E+00  0.00000000E+00  0.00000000E+00
  0.00000000E+00  0.00000000E+00  0.00000000E+00
  0.00000000E+00  0.00000000E+00  0.00000000E+00
  0.00000000E+00  0.00000000E+00  0.00000000E+00
  0.00000000E+00  0.00000000E+00  0.00000000E+00
  0.00000000E+00  0.00000000E+00  0.00000000E+00
  0.00000000E+00  0.00000000E+00  0.00000000E+00
  0.00000000E+00  0.00000000E+00  0.00000000E+00
  0.00000000E+00  0.00000000E+00  0.00000000E+00
  0.00000000E+00  0.00000000E+00  0.00000000E+00
  0.00000000E+00  0.00000000E+00  0.00000000E+00
  0.00000000E+00  0.00000000E+00  0.00000000E+00
  0.00000000E+00  0.00000000E+00  0.00000000E+00
  0.00000000E+00  0.00000000E+00  0.00000000E+00
  0.00000000E+00  0.00000000E+00  0.00000000E+00
  0.00000000E+00  0.00000000E+00  0.00000000E+00
  0.00000000E+00  0.00000000E+00  0.00000000E+00
  0.00000000E+00  0.00000000E+00  0.00000000E+00
  0.00000000E+00  0.00000000E+00  0.00000000E+00
  0.00000000E+00  0.00000000E+00  0.00000000E+00
  0.00000000E+00  0.00000000E+00  0.00000000E+00
  0.00000000E+00  0.00000000E+00  0.00000000E+00
  0.00000000E+00  0.00000000E+00  0.00000000E+00
  0.00000000E+00  0.00000000E+00  0.00000000E+00
  0.00000000E+00  0.00000000E+00  0.00000000E+00
  0.00000000E+00  0.00000000E+00  0.00000000E+00
