#12 (C 2/m) [unique axis c] cell choice 
   12.2596299929314     
     0.0005968838694914    0.0000000000000000   -0.7059156731231603
    -0.5003689651376174    0.1663133193501959   -0.0000816447955898
     0.5003689651376174    0.1663133193501959    0.0000816447955898
   Fe   Ta
    16     2
Direct
  0.3922605303920461  0.7225361262059811  0.2774638737940189
  0.6077394696079539  0.2774638737940189  0.7225361262059811
  0.0566963165549169  0.3910002407689057  0.6089997592310944
  0.9433036834450831  0.6089997592310944  0.3910002407689057
  0.1155053835748081  0.7827911933282351  0.2172088066717650
  0.8844946164251919  0.2172088066717650  0.7827911933282351
  0.3370384461148667  0.3364783193932132  0.6635216806067867
  0.6629615538851333  0.6635216806067867  0.3364783193932132
  0.7747064422802324  0.4490973464069781  0.5509026535930219
  0.2252935577197676  0.5509026535930219  0.4490973464069781
  0.7208486954336633  0.0557452230235110  0.9442547769764890
  0.2791513045663368  0.9442547769764890  0.0557452230235110
  0.5490660031981850  0.8897066269720041  0.1102933730279960
  0.4509339968018151  0.1102933730279960  0.8897066269720041
 -0.0000000000000000  0.0000000000000000 -0.0000000000000000
  0.5000000000000000  0.5000000000000000  0.5000000000000000
  0.1692149058006969  0.1673508464842925  0.8326491535157075
  0.8307850941993031  0.8326491535157075  0.1673508464842925
 
  0.00000000E+00  0.00000000E+00  0.00000000E+00
  0.00000000E+00  0.00000000E+00  0.00000000E+00
  0.00000000E+00  0.00000000E+00  0.00000000E+00
  0.00000000E+00  0.00000000E+00  0.00000000E+00
  0.00000000E+00  0.00000000E+00  0.00000000E+00
  0.00000000E+00  0.00000000E+00  0.00000000E+00
  0.00000000E+00  0.00000000E+00  0.00000000E+00
  0.00000000E+00  0.00000000E+00  0.00000000E+00
  0.00000000E+00  0.00000000E+00  0.00000000E+00
  0.00000000E+00  0.00000000E+00  0.00000000E+00
  0.00000000E+00  0.00000000E+00  0.00000000E+00
  0.00000000E+00  0.00000000E+00  0.00000000E+00
  0.00000000E+00  0.00000000E+00  0.00000000E+00
  0.00000000E+00  0.00000000E+00  0.00000000E+00
  0.00000000E+00  0.00000000E+00  0.00000000E+00
  0.00000000E+00  0.00000000E+00  0.00000000E+00
  0.00000000E+00  0.00000000E+00  0.00000000E+00
  0.00000000E+00  0.00000000E+00  0.00000000E+00
