#65 (C m m m)                           
   2.96738000121135     
     0.4984523840823268   -0.6633996568262762    0.0000000000000000
     0.4984523840823268    0.6633996568262762    0.0000000000000000
     0.0000000000000000    0.0000000000000000    3.6261814960238810
   Fe   B 
     5     1
Direct
  0.5000000000000000  0.5000000000000000  0.8716846378102879
  0.5000000000000000  0.5000000000000000  0.1283153621897120
  0.0000000000000000  0.0000000000000000  0.3149206584752581
 -0.0000000000000000  0.0000000000000000  0.6850793415247419
  0.5000000000000000  0.5000000000000000  0.5000000000000000
  0.0000000000000000 -0.0000000000000000  0.0000000000000000
 
  0.00000000E+00  0.00000000E+00  0.00000000E+00
  0.00000000E+00  0.00000000E+00  0.00000000E+00
  0.00000000E+00  0.00000000E+00  0.00000000E+00
  0.00000000E+00  0.00000000E+00  0.00000000E+00
  0.00000000E+00  0.00000000E+00  0.00000000E+00
  0.00000000E+00  0.00000000E+00  0.00000000E+00
