#38 (A m m 2)                           
   2.80727999579966     
     0.9982934617840888    0.0000000000000000    0.0000000000000000
     0.0000000000000000   -0.4945621084153553   -2.8496913216288990
     0.0000000000000000    0.4945621084153553   -2.8496913216288990
   Fe   B 
     5     1
Direct
  0.5000000000000000  0.9063730511923636  0.9063730511923636
  0.5000000000000000  0.7270440963374262  0.7270440963374262
  0.0000000000000000  0.1378854071776661  0.1378854071776661
  0.5000000000000000  0.5434434406677759  0.5434434406677759
  0.0000000000000000  0.3168179463208624  0.3168179463208624
  0.0000000000000000  0.9995760583039220  0.9995760583039220
 
  0.00000000E+00  0.00000000E+00  0.00000000E+00
  0.00000000E+00  0.00000000E+00  0.00000000E+00
  0.00000000E+00  0.00000000E+00  0.00000000E+00
  0.00000000E+00  0.00000000E+00  0.00000000E+00
  0.00000000E+00  0.00000000E+00  0.00000000E+00
  0.00000000E+00  0.00000000E+00  0.00000000E+00
