#8 (C m) [unique axis c] cell choice 1  
   4.29428999559593     
     0.1842393908672762    0.0000000000000000   -0.5981616761493578
    -0.4991312196004965    1.3396003017188163   -0.0024812727770511
     0.4991312196004965    1.3396003017188163    0.0024812727770511
   Fe   B 
     5     1
Direct
  0.9326771026285696  0.9310224866236418  0.4499807746544132
  0.9326771026285696  0.5500192253455869  0.0689775133763581
  0.5963862927865246  0.0876681338595682  0.6849505476191441
  0.5963862927865246  0.3150494523808556  0.9123318661404319
  0.3191127342940037  0.6115837151451088  0.3884162848548911
  0.9975404748758375  0.0011069866452486  0.9988930133547514
 
  0.00000000E+00  0.00000000E+00  0.00000000E+00
  0.00000000E+00  0.00000000E+00  0.00000000E+00
  0.00000000E+00  0.00000000E+00  0.00000000E+00
  0.00000000E+00  0.00000000E+00  0.00000000E+00
  0.00000000E+00  0.00000000E+00  0.00000000E+00
  0.00000000E+00  0.00000000E+00  0.00000000E+00
