#123 (P 4/m m m)                        
   2.47489999991628     
     0.9958607773764596    0.0000000000000000    0.0000000000000000
     0.0000000000000000    0.9958607773764596   -0.0000000000000000
     0.0000000000000000   -0.0000000000000000    3.9946008537147066
   Fe   B 
     5     1
Direct
  0.5000000000000000  0.5000000000000000  0.8759288079596805
  0.5000000000000000  0.5000000000000000  0.1240711920403194
  0.5000000000000000  0.5000000000000000  0.5000000000000000
  0.0000000000000000 -0.0000000000000000  0.3032657277332302
 -0.0000000000000000 -0.0000000000000000  0.6967342722667698
  0.0000000000000000 -0.0000000000000000 -0.0000000000000000
 
  0.00000000E+00  0.00000000E+00  0.00000000E+00
  0.00000000E+00  0.00000000E+00  0.00000000E+00
  0.00000000E+00  0.00000000E+00  0.00000000E+00
  0.00000000E+00  0.00000000E+00  0.00000000E+00
  0.00000000E+00  0.00000000E+00  0.00000000E+00
  0.00000000E+00  0.00000000E+00  0.00000000E+00
