#65 (C m m m)                           
   3.85042000978858     
    -0.4978419019416898    1.5341060096378698    0.0000000000000000
    -0.4978419019416898   -1.5341060096378698    0.0000000000000000
     0.0000000000000000    0.0000000000000000    0.6473704097046074
   Fe   B 
     5     1
Direct
  0.6864191596360882  0.3135808403639118  0.0000000000000000
  0.3135808403639118  0.6864191596360882  0.0000000000000000
  0.5000000000000000  0.5000000000000000  0.5000000000000000
  0.1358629340713193  0.8641370659286807  0.5000000000000000
  0.8641370659286807  0.1358629340713193  0.5000000000000000
  0.0000000000000000  0.0000000000000000  0.0000000000000000
 
  0.00000000E+00  0.00000000E+00  0.00000000E+00
  0.00000000E+00  0.00000000E+00  0.00000000E+00
  0.00000000E+00  0.00000000E+00  0.00000000E+00
  0.00000000E+00  0.00000000E+00  0.00000000E+00
  0.00000000E+00  0.00000000E+00  0.00000000E+00
  0.00000000E+00  0.00000000E+00  0.00000000E+00
