#1 (P 1)                                
   2.64208000287955     
     1.0006396314359742    0.0005259893144036    0.0000845074032258
     0.3541867670150178    1.5828115938047096   -0.0004552603027792
     0.2338874499564519    0.6816636763030413    2.1646082516066691
   Fe   B 
     5     1
Direct
  0.0818461951630717  0.8945653709664771  0.6273076096786714
  0.9530569170859831  0.5385350924547625  0.3888917213687809
  0.6431868164424118  0.6181840104878968  0.0050753659851106
  0.4113749219637200  0.0911579385175202  0.2372517526849023
  0.4298624992286682  0.3016560348936638  0.7682169682154506
  0.0001426501161435  0.0001315526796841  0.9997065820670884
 
  0.00000000E+00  0.00000000E+00  0.00000000E+00
  0.00000000E+00  0.00000000E+00  0.00000000E+00
  0.00000000E+00  0.00000000E+00  0.00000000E+00
  0.00000000E+00  0.00000000E+00  0.00000000E+00
  0.00000000E+00  0.00000000E+00  0.00000000E+00
  0.00000000E+00  0.00000000E+00  0.00000000E+00
