#87-I4/m                                
  0.999999998725216     
     6.0644775732598175    0.0000000057026796    0.0000000000000000
    -0.0000000057026796    6.0644775732598175    0.0000000000000000
     0.0000000000000000    0.0000000000000000    2.4990608965988197
   Fe   B 
     8     2
Direct
  0.2294953270092037  0.5790845476900444  0.0000000000000000
  0.7705046729907963  0.4209154523099556  0.0000000000000000
  0.4209154523099556  0.2294953270092037  0.0000000000000000
  0.5790845476900444  0.7705046729907963  0.0000000000000000
  0.7294953270092037  0.0790845476900444  0.5000000000000000
  0.2705046729907963  0.9209154523099556  0.5000000000000000
  0.9209154523099556  0.7294953270092037  0.5000000000000000
  0.0790845476900444  0.2705046729907963  0.5000000000000000
  0.0000000000000000  0.0000000000000000  0.0000000000000000
  0.5000000000000000  0.5000000000000000  0.5000000000000000
 
  0.00000000E+00  0.00000000E+00  0.00000000E+00
  0.00000000E+00  0.00000000E+00  0.00000000E+00
  0.00000000E+00  0.00000000E+00  0.00000000E+00
  0.00000000E+00  0.00000000E+00  0.00000000E+00
  0.00000000E+00  0.00000000E+00  0.00000000E+00
  0.00000000E+00  0.00000000E+00  0.00000000E+00
  0.00000000E+00  0.00000000E+00  0.00000000E+00
  0.00000000E+00  0.00000000E+00  0.00000000E+00
  0.00000000E+00  0.00000000E+00  0.00000000E+00
  0.00000000E+00  0.00000000E+00  0.00000000E+00
