#23-I222                                
  0.999999999773312     
     4.3280534410749691    0.0000000000000000    0.0000000000000000
     0.0000000000000000    4.8576299365983129    0.0000000000000000
     0.0000000000000000    0.0000000000000000    4.9632805017015009
   Fe   B 
     8     2
Direct
  0.2342007229964267  0.1863701586613971  0.1576107293079971
  0.2342007229964267  0.8136298413386029  0.8423892706920029
  0.7657992770035733  0.1863701586613971  0.8423892706920029
  0.7657992770035733  0.8136298413386029  0.1576107293079971
  0.7342007229964267  0.6863701586613971  0.6576107293079971
  0.7342007229964267  0.3136298413386029  0.3423892706920029
  0.2657992770035733  0.6863701586613971  0.3423892706920029
  0.2657992770035733  0.3136298413386029  0.6576107293079971
  0.0000000000000000  0.0000000000000000  0.5000000000000000
  0.5000000000000000  0.5000000000000000  0.0000000000000000
 
  0.00000000E+00  0.00000000E+00  0.00000000E+00
  0.00000000E+00  0.00000000E+00  0.00000000E+00
  0.00000000E+00  0.00000000E+00  0.00000000E+00
  0.00000000E+00  0.00000000E+00  0.00000000E+00
  0.00000000E+00  0.00000000E+00  0.00000000E+00
  0.00000000E+00  0.00000000E+00  0.00000000E+00
  0.00000000E+00  0.00000000E+00  0.00000000E+00
  0.00000000E+00  0.00000000E+00  0.00000000E+00
  0.00000000E+00  0.00000000E+00  0.00000000E+00
  0.00000000E+00  0.00000000E+00  0.00000000E+00
