#8 (C m) [unique axis c] cell choice 1  
   7.96692000823304     
     0.4264476789864857    0.0000000000000000   -0.6076730360656092
    -0.4977279399928379    0.1683705650905913    0.0000215050020642
     0.4977279399928379    0.1683705650905913   -0.0000215050020642
   Fe   B 
     4     1
Direct
  0.3019361511433303  0.5546513638972712  0.4453486361027288
  0.0336510051730627  0.7152032170066818  0.2847967829933182
  0.7407807438544225  0.2894595618202658  0.7105404381797342
  0.5561313478171854  0.9363648381662628  0.0636351618337372
  0.9995807520119868  0.9998010191095261  0.0001989808904739
 
  0.00000000E+00  0.00000000E+00  0.00000000E+00
  0.00000000E+00  0.00000000E+00  0.00000000E+00
  0.00000000E+00  0.00000000E+00  0.00000000E+00
  0.00000000E+00  0.00000000E+00  0.00000000E+00
  0.00000000E+00  0.00000000E+00  0.00000000E+00
