#139-I4/m2/m2/m                         
   1.00000000260984     
     2.4755540142324199    0.0000000000000000   -0.0000000000000000
     0.0000000000000000    2.4755540142324199    0.0000000000000000
     0.0000000000000000   -0.0000000000000000   15.7643519939382948
   Fe   B 
     8     2
Direct
 -0.0000000000000000 -0.0000000000000000  0.8109290481162466
  0.0000000000000000 -0.0000000000000000  0.1890709518837535
  0.5000000000000000  0.5000000000000000  0.3109290481162466
  0.5000000000000000  0.5000000000000000  0.6890709518837534
  0.0000000000000000  0.0000000000000000  0.5774112847664106
 -0.0000000000000000  0.0000000000000000  0.4225887152335895
  0.5000000000000000  0.5000000000000000  0.0774112847664105
  0.5000000000000000  0.5000000000000000  0.9225887152335894
  0.0000000000000000 -0.0000000000000000  0.0000000000000000
  0.5000000000000000  0.5000000000000000  0.5000000000000000
 
  0.00000000E+00  0.00000000E+00  0.00000000E+00
  0.00000000E+00  0.00000000E+00  0.00000000E+00
  0.00000000E+00  0.00000000E+00  0.00000000E+00
  0.00000000E+00  0.00000000E+00  0.00000000E+00
  0.00000000E+00  0.00000000E+00  0.00000000E+00
  0.00000000E+00  0.00000000E+00  0.00000000E+00
  0.00000000E+00  0.00000000E+00  0.00000000E+00
  0.00000000E+00  0.00000000E+00  0.00000000E+00
  0.00000000E+00  0.00000000E+00  0.00000000E+00
  0.00000000E+00  0.00000000E+00  0.00000000E+00
