#97-I422                                
   1.00000000023333     
     4.9280165936434681    0.0000000000000000    0.0000000000000000
     0.0000000000000000    4.9280165936434681    0.0000000000000000
     0.0000000000000000    0.0000000000000000    4.3060194927597841
   Fe   B 
     8     2
Direct
  0.3290295991504024  0.8290295991504024  0.2500000000000000
  0.3290295991504024  0.1709704008495976  0.7500000000000000
  0.6709704008495976  0.8290295991504024  0.7500000000000000
  0.6709704008495976  0.1709704008495976  0.2500000000000000
  0.1709704008495976  0.6709704008495976  0.7500000000000000
  0.1709704008495976  0.3290295991504024  0.2500000000000000
  0.8290295991504024  0.6709704008495976  0.2500000000000000
  0.8290295991504024  0.3290295991504024  0.7500000000000000
  0.0000000000000000  0.0000000000000000  0.0000000000000000
  0.5000000000000000  0.5000000000000000  0.5000000000000000
 
  0.00000000E+00  0.00000000E+00  0.00000000E+00
  0.00000000E+00  0.00000000E+00  0.00000000E+00
  0.00000000E+00  0.00000000E+00  0.00000000E+00
  0.00000000E+00  0.00000000E+00  0.00000000E+00
  0.00000000E+00  0.00000000E+00  0.00000000E+00
  0.00000000E+00  0.00000000E+00  0.00000000E+00
  0.00000000E+00  0.00000000E+00  0.00000000E+00
  0.00000000E+00  0.00000000E+00  0.00000000E+00
  0.00000000E+00  0.00000000E+00  0.00000000E+00
  0.00000000E+00  0.00000000E+00  0.00000000E+00
