#38 (A m m 2)                           
   2.75966998805045     
     0.9989168395678015    0.0000000000000000    0.0000000000000000
     0.0000000000000000   -0.5045356076011960   -2.4050534967779176
     0.0000000000000000    0.5045356076011960   -2.4050534967779176
   Fe   B 
     4     1
Direct
  0.5000000000000000  0.2238924973836256  0.2238924973836256
  0.0000000000000000  0.6131492907443834  0.6131492907443834
  0.0000000000000000  0.8318636057337810  0.8318636057337810
  0.5000000000000000  0.4469117290410352  0.4469117290410352
  0.0000000000000000 -0.0000071229028220 -0.0000071229028220
 
  0.00000000E+00  0.00000000E+00  0.00000000E+00
  0.00000000E+00  0.00000000E+00  0.00000000E+00
  0.00000000E+00  0.00000000E+00  0.00000000E+00
  0.00000000E+00  0.00000000E+00  0.00000000E+00
  0.00000000E+00  0.00000000E+00  0.00000000E+00
