#69 (F m m m)                           
   17.4950400127130     
     0.4992942734887948   -0.1121404366795993    0.0000000000000000
     0.4992942734887948    0.0000000000000000    0.0852883737254163
     0.0000000000000000   -0.1121404366795993    0.0852883737254163
   Fe   B 
     4     1
Direct
  0.1934096783765270  0.1934096783765270  0.8065903216234731
  0.8065903216234731  0.8065903216234731  0.1934096783765270
  0.5784484908499015  0.5784484908499015  0.4215515091500984
  0.4215515091500984  0.4215515091500984  0.5784484908499015
 -0.0000000000000000  0.0000000000000000 -0.0000000000000000
 
  0.00000000E+00  0.00000000E+00  0.00000000E+00
  0.00000000E+00  0.00000000E+00  0.00000000E+00
  0.00000000E+00  0.00000000E+00  0.00000000E+00
  0.00000000E+00  0.00000000E+00  0.00000000E+00
  0.00000000E+00  0.00000000E+00  0.00000000E+00
