#121-I-42m                              
  0.999999998872865     
     4.5869285564034739    0.0000000000000000    0.0000000000000000
     0.0000000000000000    4.5869285564034739    0.0000000000000000
     0.0000000000000000    0.0000000000000000    5.0038723280841344
   Fe   B 
     8     2
Direct
  0.7913105065064201  0.7913105065064201  0.8450401654174868
  0.7913105065064201  0.2086894934935799  0.1549598345825132
  0.2086894934935799  0.7913105065064201  0.1549598345825132
  0.2086894934935799  0.2086894934935799  0.8450401654174868
  0.2913105065064201  0.2913105065064201  0.3450401654174868
  0.2913105065064201  0.7086894934935799  0.6549598345825132
  0.7086894934935799  0.2913105065064201  0.6549598345825132
  0.7086894934935799  0.7086894934935799  0.3450401654174868
  0.0000000000000000  0.0000000000000000  0.5000000000000000
  0.5000000000000000  0.5000000000000000  0.0000000000000000
 
  0.00000000E+00  0.00000000E+00  0.00000000E+00
  0.00000000E+00  0.00000000E+00  0.00000000E+00
  0.00000000E+00  0.00000000E+00  0.00000000E+00
  0.00000000E+00  0.00000000E+00  0.00000000E+00
  0.00000000E+00  0.00000000E+00  0.00000000E+00
  0.00000000E+00  0.00000000E+00  0.00000000E+00
  0.00000000E+00  0.00000000E+00  0.00000000E+00
  0.00000000E+00  0.00000000E+00  0.00000000E+00
  0.00000000E+00  0.00000000E+00  0.00000000E+00
  0.00000000E+00  0.00000000E+00  0.00000000E+00
