#12 (C 2/m) [unique axis c] cell choice 
   7.64947998538988     
     0.4136087637566399    0.0000000000000000   -0.5550828038690875
    -0.5004976735432748    0.2577851862973213    0.0002016881860761
     0.5004976735432748    0.2577851862973213   -0.0002016881860761
   Fe   C 
     5     1
Direct
  0.3952456910019319  0.2937419153485212  0.7062580846514789
  0.6047543089980683  0.7062580846514789  0.2937419153485212
  0.2266098330117424  0.8893336631491781  0.1106663368508219
  0.7733901669882576  0.1106663368508219  0.8893336631491781
 -0.0000000000000000  0.5000000000000000  0.5000000000000000
 -0.0000000000000000 -0.0000000000000000  0.0000000000000000
 
  0.00000000E+00  0.00000000E+00  0.00000000E+00
  0.00000000E+00  0.00000000E+00  0.00000000E+00
  0.00000000E+00  0.00000000E+00  0.00000000E+00
  0.00000000E+00  0.00000000E+00  0.00000000E+00
  0.00000000E+00  0.00000000E+00  0.00000000E+00
  0.00000000E+00  0.00000000E+00  0.00000000E+00
