#12 (C 2/m) [unique axis c] cell choice 
   8.96890001138676     
     0.4450453718513411    0.0000000000000000   -0.5600806245218751
    -0.5005785848193057    0.1577215506323258   -0.0000910797905398
     0.5005785848193057    0.1577215506323258    0.0000910797905398
   Fe   C 
     5     1
Direct
  0.5000000000000000  0.0000000000000000 -0.0000000000000000
  0.1019119479056860  0.4063901768007636  0.5936098231992362
  0.8980880520943142  0.5936098231992362  0.4063901768007636
  0.6621035477781811  0.7697144182306045  0.2302855817694027
  0.3378964522218189  0.2302855817694027  0.7697144182306045
 -0.0000000000000000  0.0000000000000000 -0.0000000000000000
 
  0.00000000E+00  0.00000000E+00  0.00000000E+00
  0.00000000E+00  0.00000000E+00  0.00000000E+00
  0.00000000E+00  0.00000000E+00  0.00000000E+00
  0.00000000E+00  0.00000000E+00  0.00000000E+00
  0.00000000E+00  0.00000000E+00  0.00000000E+00
  0.00000000E+00  0.00000000E+00  0.00000000E+00
