#12 (C 2/m) [unique axis c] cell choice 
   4.31573999639439     
     0.3105083165867041    0.0000000000000000   -2.4127311914046659
    -0.4993477979111726    0.3267675718301428   -0.0020236307508328
     0.4993477979111726    0.3267675718301428    0.0020236307508328
   Fe   C 
     5     1
Direct
  0.1118624316725541  0.3827730812322754  0.6172269187677245
  0.8881375683274459  0.6172269187677245  0.3827730812322754
  0.3078955674437022  0.9415189158864022  0.0584810841135977
  0.6921044325562977  0.0584810841135977  0.9415189158864022
  0.5000000000000000  0.5000000000000000  0.5000000000000000
  0.0000000000000000  0.0000000000000000 -0.0000000000000000
 
  0.00000000E+00  0.00000000E+00  0.00000000E+00
  0.00000000E+00  0.00000000E+00  0.00000000E+00
  0.00000000E+00  0.00000000E+00  0.00000000E+00
  0.00000000E+00  0.00000000E+00  0.00000000E+00
  0.00000000E+00  0.00000000E+00  0.00000000E+00
  0.00000000E+00  0.00000000E+00  0.00000000E+00
