#139-I4/m2/m2/m                         
   1.00000000007921     
     2.8468967462056116    0.0000000000000000   -0.0000000000000000
     0.0000000000000000    2.8468967462056116    0.0000000000000000
     0.0000000000000000   -0.0000000000000000   15.6124906103678125
   Fe   C 
    10     2
Direct
  0.0000000000000000  0.0000000000000000  0.2030633010910255
 -0.0000000000000000  0.0000000000000000  0.7969366989089675
  0.5000000000000000  0.5000000000000000  0.7030633010910325
  0.5000000000000000  0.5000000000000000  0.2969366989089674
 -0.0000000000000000 -0.0000000000000000  0.6169194896254072
  0.0000000000000000 -0.0000000000000000  0.3830805103745928
  0.5000000000000000  0.5000000000000000  0.1169194896254072
  0.5000000000000000  0.5000000000000000  0.8830805103745928
 -0.0000000000000000  0.0000000000000000 -0.0000000000000000
  0.5000000000000000  0.5000000000000000  0.5000000000000000
 -0.0000000000000000 -0.0000000000000000  0.5000000000000000
  0.5000000000000000  0.5000000000000000 -0.0000000000000000
 
  0.00000000E+00  0.00000000E+00  0.00000000E+00
  0.00000000E+00  0.00000000E+00  0.00000000E+00
  0.00000000E+00  0.00000000E+00  0.00000000E+00
  0.00000000E+00  0.00000000E+00  0.00000000E+00
  0.00000000E+00  0.00000000E+00  0.00000000E+00
  0.00000000E+00  0.00000000E+00  0.00000000E+00
  0.00000000E+00  0.00000000E+00  0.00000000E+00
  0.00000000E+00  0.00000000E+00  0.00000000E+00
  0.00000000E+00  0.00000000E+00  0.00000000E+00
  0.00000000E+00  0.00000000E+00  0.00000000E+00
  0.00000000E+00  0.00000000E+00  0.00000000E+00
  0.00000000E+00  0.00000000E+00  0.00000000E+00
