#38 (A m m 2)                           
   2.73749999868151     
     0.9973222224272740    0.0000000000000000    0.0000000000000000
     0.0000000000000000   -0.5123958976191824   -2.9438340887128871
     0.0000000000000000    0.5123958976191824   -2.9438340887128871
   Fe   C 
     5     1
Direct
  0.5000000000000000  0.0884835842395335  0.0884835842395335
  0.5000000000000000  0.2743826557214010  0.2743826557214010
  0.5000000000000000  0.4604510957916437  0.4604510957916437
  0.0000000000000000  0.8646234590811568  0.8646234590811568
  0.0000000000000000  0.6835989647506443  0.6835989647506443
  0.0000000000000000  0.9998902404156317  0.9998902404156317
 
  0.00000000E+00  0.00000000E+00  0.00000000E+00
  0.00000000E+00  0.00000000E+00  0.00000000E+00
  0.00000000E+00  0.00000000E+00  0.00000000E+00
  0.00000000E+00  0.00000000E+00  0.00000000E+00
  0.00000000E+00  0.00000000E+00  0.00000000E+00
  0.00000000E+00  0.00000000E+00  0.00000000E+00
