#44-Imm2                                
   1.00000000089653     
    12.4547780802303301    0.0000000000000000    0.0000000000000000
     0.0000000000000000    3.9473033407933791    0.0000000000000000
     0.0000000000000000    0.0000000000000000    2.6290233969365344
   Fe   C 
    10     2
Direct
  0.7999062663330841 -0.0000000000000000  0.9619121793239497
  0.2000937336669158 -0.0000000000000000  0.9619121793239497
  0.2999062663330842  0.5000000000000000  0.4619121793239497
  0.7000937336669159  0.5000000000000000  0.4619121793239497
  0.6073639741350931  0.0000000000000000  0.1497279434535547
  0.3926360258649066  0.0000000000000000  0.1497279434535547
  0.1073639741350934  0.5000000000000000  0.6497279434535547
  0.8926360258649069  0.5000000000000000  0.6497279434535547
 -0.0000000000000000 -0.0000000000000000  0.1826993964354622
  0.5000000000000000  0.5000000000000000  0.6826993964354623
 -0.0000000000000000  0.5000000000000000  0.1509703580095437
  0.5000000000000000  0.0000000000000000  0.6509703580095438
 
  0.00000000E+00  0.00000000E+00  0.00000000E+00
  0.00000000E+00  0.00000000E+00  0.00000000E+00
  0.00000000E+00  0.00000000E+00  0.00000000E+00
  0.00000000E+00  0.00000000E+00  0.00000000E+00
  0.00000000E+00  0.00000000E+00  0.00000000E+00
  0.00000000E+00  0.00000000E+00  0.00000000E+00
  0.00000000E+00  0.00000000E+00  0.00000000E+00
  0.00000000E+00  0.00000000E+00  0.00000000E+00
  0.00000000E+00  0.00000000E+00  0.00000000E+00
  0.00000000E+00  0.00000000E+00  0.00000000E+00
  0.00000000E+00  0.00000000E+00  0.00000000E+00
  0.00000000E+00  0.00000000E+00  0.00000000E+00
