#2 (P -1)                               
   2.62679999333029     
     0.9994332103961922    0.0006040296333422    0.0014182483948197
    -0.1753699511049510    1.6062227967628504   -0.0010181928992061
    -0.4118833868817430   -0.6583679279177662    2.2061489596229231
   Fe   C 
     5     1
Direct
  0.5000000000000000  0.5000000000000000  0.5000000000000000
  0.0957025402800643  0.9005331616201235  0.3036860251419315
  0.9042974597199356  0.0994668383798765  0.6963139748580685
  0.3836768365666099  0.6780876719024483  0.8884348236897247
  0.6163231634333901  0.3219123280975517  0.1115651763102753
 -0.0000000000000000 -0.0000000000000000 -0.0000000000000000
 
  0.00000000E+00  0.00000000E+00  0.00000000E+00
  0.00000000E+00  0.00000000E+00  0.00000000E+00
  0.00000000E+00  0.00000000E+00  0.00000000E+00
  0.00000000E+00  0.00000000E+00  0.00000000E+00
  0.00000000E+00  0.00000000E+00  0.00000000E+00
  0.00000000E+00  0.00000000E+00  0.00000000E+00
