#12 (C 2/m) [unique axis c] cell choice 
   12.2738599928102     
     0.0057864167887005    0.0000000000000000   -0.2136251152122889
    -0.4996983904960217    0.1621341762709818   -0.0008697087194061
     0.4996983904960217    0.1621341762709818    0.0008697087194061
   Fe   C 
     5     1
Direct
  0.1804218810910909  0.2974184400534793  0.7025815599465207
  0.8195781189089092  0.7025815599465207  0.2974184400534793
  0.0000000000000000  0.5000000000000000  0.5000000000000000
  0.4992983592629207  0.8901727785558208  0.1098272214441793
  0.5007016407370793  0.1098272214441793  0.8901727785558208
  0.0000000000000000  0.0000000000000000 -0.0000000000000000
 
  0.00000000E+00  0.00000000E+00  0.00000000E+00
  0.00000000E+00  0.00000000E+00  0.00000000E+00
  0.00000000E+00  0.00000000E+00  0.00000000E+00
  0.00000000E+00  0.00000000E+00  0.00000000E+00
  0.00000000E+00  0.00000000E+00  0.00000000E+00
  0.00000000E+00  0.00000000E+00  0.00000000E+00
