#87-I4/m                                
  0.999999999861400     
     5.7638714818278762    0.0000000037669498    0.0000000000000000
    -0.0000000037669498    5.7638714818278762    0.0000000000000000
     0.0000000000000000   -0.0000000000000000    3.8348974786219423
   Fe   C 
    10     2
Direct
 -0.0000000000000000 -0.0000000000000000 -0.0000000000000000
  0.5000000000000000  0.5000000000000000  0.5000000000000000
  0.1886220745179974  0.6050844531027877 -0.0000000000000000
  0.8113779254820027  0.3949155468972122  0.0000000000000000
  0.3949155468972122  0.1886220745179974  0.0000000000000000
  0.6050844531027877  0.8113779254820027 -0.0000000000000000
  0.6886220745179973  0.1050844531027878  0.5000000000000000
  0.3113779254820026  0.8949155468972123  0.5000000000000000
  0.8949155468972123  0.6886220745179973  0.5000000000000000
  0.1050844531027878  0.3113779254820026  0.5000000000000000
 -0.0000000000000000 -0.0000000000000000  0.5000000000000000
  0.5000000000000000  0.5000000000000000 -0.0000000000000000
 
  0.00000000E+00  0.00000000E+00  0.00000000E+00
  0.00000000E+00  0.00000000E+00  0.00000000E+00
  0.00000000E+00  0.00000000E+00  0.00000000E+00
  0.00000000E+00  0.00000000E+00  0.00000000E+00
  0.00000000E+00  0.00000000E+00  0.00000000E+00
  0.00000000E+00  0.00000000E+00  0.00000000E+00
  0.00000000E+00  0.00000000E+00  0.00000000E+00
  0.00000000E+00  0.00000000E+00  0.00000000E+00
  0.00000000E+00  0.00000000E+00  0.00000000E+00
  0.00000000E+00  0.00000000E+00  0.00000000E+00
  0.00000000E+00  0.00000000E+00  0.00000000E+00
  0.00000000E+00  0.00000000E+00  0.00000000E+00
