#38 (A m m 2)                           
   10.6300000065917     
     0.9998364311607638    0.0000000000000000    0.0000000000000000
     0.0000000000000000    0.1302127683851859    0.2001680460591393
     0.0000000000000000   -0.1302127683851859    0.2001680460591393
   Fe   C 
     5     1
Direct
  0.5000000000000000  0.3574423518554638  0.3574423518554638
  0.8817310327895743  0.3483686816664303  0.3483686816664303
  0.1182689672104257  0.3483686816664303  0.3483686816664303
  0.3101412488585461  0.8541894446656790  0.8541894446656790
  0.6898587511414539  0.8541894446656790  0.8541894446656790
  0.0000000000000000  0.0020813954803033  0.0020813954803033
 
  0.00000000E+00  0.00000000E+00  0.00000000E+00
  0.00000000E+00  0.00000000E+00  0.00000000E+00
  0.00000000E+00  0.00000000E+00  0.00000000E+00
  0.00000000E+00  0.00000000E+00  0.00000000E+00
  0.00000000E+00  0.00000000E+00  0.00000000E+00
  0.00000000E+00  0.00000000E+00  0.00000000E+00
