#123-P4/m2/m2/m                         
  0.999999999942061     
     2.8587802718246857    0.0000000000000000    0.0000000000000000
     0.0000000000000000    2.8587802718246857    0.0000000000000000
     0.0000000000000000    0.0000000000000000    8.3155197196049269
   Fe   S 
     5     1
Direct
  0.0000000000000000 -0.0000000000000000  0.6679462449217285
 -0.0000000000000000  0.0000000000000000  0.3320537550782714
  0.5000000000000000  0.5000000000000000  0.8413582698584761
  0.5000000000000000  0.5000000000000000  0.1586417301415239
  0.5000000000000000  0.5000000000000000  0.5000000000000000
 -0.0000000000000000 -0.0000000000000000  0.0000000000000000
 
  0.00000000E+00  0.00000000E+00  0.00000000E+00
  0.00000000E+00  0.00000000E+00  0.00000000E+00
  0.00000000E+00  0.00000000E+00  0.00000000E+00
  0.00000000E+00  0.00000000E+00  0.00000000E+00
  0.00000000E+00  0.00000000E+00  0.00000000E+00
  0.00000000E+00  0.00000000E+00  0.00000000E+00
