#8-C1m1                                 
  0.999999999537346     
    12.3389973306055314    0.0000000000000000    0.0142298589646087
     0.0000000000000000    2.8803992724034648    0.0000000000000000
    -0.7922411717941851    0.0000000000000000    4.1187708819423730
   Fe   S 
    10     2
Direct
  0.7178263102132061  0.0000000000000000  0.5764868710096446
  0.2178263102132060  0.5000000000000000  0.5764868710096446
  0.3823535347990185  0.0000000000000000  0.6603755059520043
  0.8823535347990185  0.5000000000000000  0.6603755059520043
  0.0420784729652050 -0.0000000000000000  0.7539587717560154
  0.5420784729652051  0.5000000000000000  0.7539587717560154
  0.2446551979473955  0.0000000000000000  0.0730996412906972
  0.7446551979473955  0.5000000000000000  0.0730996412906972
  0.9053887758842931  0.0000000000000000  0.1723823457204502
  0.4053887758842932  0.5000000000000000  0.1723823457204502
  0.0942777081908981 -0.0000000000000000  0.2898068642711909
  0.5942777081908982  0.5000000000000000  0.2898068642711909
 
  0.00000000E+00  0.00000000E+00  0.00000000E+00
  0.00000000E+00  0.00000000E+00  0.00000000E+00
  0.00000000E+00  0.00000000E+00  0.00000000E+00
  0.00000000E+00  0.00000000E+00  0.00000000E+00
  0.00000000E+00  0.00000000E+00  0.00000000E+00
  0.00000000E+00  0.00000000E+00  0.00000000E+00
  0.00000000E+00  0.00000000E+00  0.00000000E+00
  0.00000000E+00  0.00000000E+00  0.00000000E+00
  0.00000000E+00  0.00000000E+00  0.00000000E+00
  0.00000000E+00  0.00000000E+00  0.00000000E+00
  0.00000000E+00  0.00000000E+00  0.00000000E+00
  0.00000000E+00  0.00000000E+00  0.00000000E+00
