#119-I-4m2                              
   1.00000000026336     
     2.8637231203679701   -0.0000000000000000   -0.0000000000000000
     0.0000000000000000    2.8637231203679701   -0.0000000000000000
     0.0000000000000000    0.0000000000000000   17.9025410168023704
   Fe   S 
    10     2
Direct
 -0.0000000000000000 -0.0000000000000000  0.0789510549000935
  0.0000000000000000  0.0000000000000000  0.9210489450999064
  0.5000000000000000  0.5000000000000000  0.5789510549000936
  0.5000000000000000  0.5000000000000000  0.4210489450999065
 -0.0000000000000000 -0.0000000000000000  0.3415249619884972
  0.0000000000000000  0.0000000000000000  0.6584750380115029
  0.5000000000000000  0.5000000000000000  0.8415249619884971
  0.5000000000000000  0.5000000000000000  0.1584750380115029
 -0.0000000000000000 -0.0000000000000000  0.5000000000000000
  0.5000000000000000  0.5000000000000000  0.0000000000000000
 -0.0000000000000000  0.5000000000000000  0.7500000000000000
  0.5000000000000000 -0.0000000000000000  0.2500000000000000
 
  0.00000000E+00  0.00000000E+00  0.00000000E+00
  0.00000000E+00  0.00000000E+00  0.00000000E+00
  0.00000000E+00  0.00000000E+00  0.00000000E+00
  0.00000000E+00  0.00000000E+00  0.00000000E+00
  0.00000000E+00  0.00000000E+00  0.00000000E+00
  0.00000000E+00  0.00000000E+00  0.00000000E+00
  0.00000000E+00  0.00000000E+00  0.00000000E+00
  0.00000000E+00  0.00000000E+00  0.00000000E+00
  0.00000000E+00  0.00000000E+00  0.00000000E+00
  0.00000000E+00  0.00000000E+00  0.00000000E+00
  0.00000000E+00  0.00000000E+00  0.00000000E+00
  0.00000000E+00  0.00000000E+00  0.00000000E+00
