#38-Amm2                                
   1.00000000089280     
     2.9590840741265194    0.0000000000000000    0.0000000000000000
     0.0000000000000000    2.9244221684673644    0.0000000000000000
     0.0000000000000000    0.0000000000000000   16.3905557240814161
   Fe   S 
    10     2
Direct
  0.5000000000000000  0.0000000000000000  0.3508526834995681
  0.5000000000000000  0.5000000000000000  0.8508526834995680
  0.5000000000000000 -0.0000000000000000  0.5170584741134602
  0.5000000000000000  0.5000000000000000  0.0170584741134602
 -0.0000000000000000  0.0000000000000000  0.7673398324340800
  0.0000000000000000  0.5000000000000000  0.2673398324340802
 -0.0000000000000000 -0.0000000000000000  0.1088482293227905
 -0.0000000000000000  0.5000000000000000  0.6088482293227905
 -0.0000000000000000  0.0000000000000000  0.9353153172112932
  0.0000000000000000  0.5000000000000000  0.4353153172112932
  0.5000000000000000 -0.0000000000000000  0.6666854634188147
  0.5000000000000000  0.5000000000000000  0.1666854634188077
 
  0.00000000E+00  0.00000000E+00  0.00000000E+00
  0.00000000E+00  0.00000000E+00  0.00000000E+00
  0.00000000E+00  0.00000000E+00  0.00000000E+00
  0.00000000E+00  0.00000000E+00  0.00000000E+00
  0.00000000E+00  0.00000000E+00  0.00000000E+00
  0.00000000E+00  0.00000000E+00  0.00000000E+00
  0.00000000E+00  0.00000000E+00  0.00000000E+00
  0.00000000E+00  0.00000000E+00  0.00000000E+00
  0.00000000E+00  0.00000000E+00  0.00000000E+00
  0.00000000E+00  0.00000000E+00  0.00000000E+00
  0.00000000E+00  0.00000000E+00  0.00000000E+00
  0.00000000E+00  0.00000000E+00  0.00000000E+00
