#1 (P 1)                                
   4.82013000246449     
     0.9967499403546454    0.0002000691821745   -0.0000802976653945
    -0.4521478000904148    0.8882576894864953   -0.0000461865590045
    -0.0935037798954584   -0.1542560873361207    0.9840895170545879
   Co   Fe   Ta
     1     6     1
Direct
  0.9999812491545378  0.0000420144769121 -0.0001345373166908
  0.6274379549135775  0.1179858362825730  0.2571841290515855
  0.2544886339394883  0.2365381983280576  0.5134374681214356
  0.8719272267771958  0.3624538890861983  0.7454464886039779
  0.7443040720318174  0.7446612364050584  0.5137608811494379
  0.3799582505486445  0.8723853755961870  0.7668034095858096
  0.5087245487151314  0.4908790431803204  0.9998229514827384
  0.1264180639196034  0.6184544066446973  0.2565792093217069
 
  0.00000000E+00  0.00000000E+00  0.00000000E+00
  0.00000000E+00  0.00000000E+00  0.00000000E+00
  0.00000000E+00  0.00000000E+00  0.00000000E+00
  0.00000000E+00  0.00000000E+00  0.00000000E+00
  0.00000000E+00  0.00000000E+00  0.00000000E+00
  0.00000000E+00  0.00000000E+00  0.00000000E+00
  0.00000000E+00  0.00000000E+00  0.00000000E+00
  0.00000000E+00  0.00000000E+00  0.00000000E+00
