#6 (P m) [unique axis c]                
   4.82443000158490     
     0.1863505940825042    0.0000000000000000   -1.0266144740429506
    -1.0008348473783626    0.0000000000000000    0.0015516168328648
     0.0000000000000000    0.8428237998986841    0.0000000000000000
   Co   Fe   Ta
     1     6     1
Direct
  0.9999239541049515  0.9998920396106639 -0.0000000000000000
  0.8812308062157687  0.2518446690469142  0.5000000000000000
  0.3680081126903677  0.2409147031779309  0.5000000000000000
  0.4877464330761880  0.0068866699237372  0.0000000000000000
  0.1238005752920028  0.7451145691479248  0.5000000000000000
  0.7567731995291636  0.4865542920575489 -0.0000000000000000
  0.2478648046509737  0.4934202418763059 -0.0000000000000000
  0.6237721144405838  0.7456928151589610  0.5000000000000000
 
  0.00000000E+00  0.00000000E+00  0.00000000E+00
  0.00000000E+00  0.00000000E+00  0.00000000E+00
  0.00000000E+00  0.00000000E+00  0.00000000E+00
  0.00000000E+00  0.00000000E+00  0.00000000E+00
  0.00000000E+00  0.00000000E+00  0.00000000E+00
  0.00000000E+00  0.00000000E+00  0.00000000E+00
  0.00000000E+00  0.00000000E+00  0.00000000E+00
  0.00000000E+00  0.00000000E+00  0.00000000E+00
