#166 (R -3 m)                           
   4.09570000558350     
     0.0000009964098344    0.5758781273681371   -1.6439596135840817
     0.4987263178776249   -0.2879400600938991   -1.6439596129013427
    -0.4987243250579569   -0.2879400600938994   -1.6439596135350629
   Co   Fe   Ta
     1     6     1
Direct
 -0.0000000000000000 -0.0000000000000000 -0.0000000000000000
  0.7486619989284959  0.7486665089284352  0.7486619989284929
  0.2513380010715041  0.2513394910715639  0.2513380010715072
  0.3718345829492249  0.3718353529492660  0.3718345829492264
  0.6281654170507751  0.6281646470507339  0.6281654170507737
  0.8791971519617199  0.8792008819617665  0.8791971519617291
  0.1208028480382802  0.1208051180382327  0.1208028480382710
  0.5000000000000000  0.5000000000000000  0.5000000000000000
 
  0.00000000E+00  0.00000000E+00  0.00000000E+00
  0.00000000E+00  0.00000000E+00  0.00000000E+00
  0.00000000E+00  0.00000000E+00  0.00000000E+00
  0.00000000E+00  0.00000000E+00  0.00000000E+00
  0.00000000E+00  0.00000000E+00  0.00000000E+00
  0.00000000E+00  0.00000000E+00  0.00000000E+00
  0.00000000E+00  0.00000000E+00  0.00000000E+00
  0.00000000E+00  0.00000000E+00  0.00000000E+00
