#65 (C m m m)                           
   8.16231998608784     
    -0.4999675385349344    0.3594731987053636    0.0000000000000000
     0.4999675385349344    0.3594731987053636    0.0000000000000000
     0.0000000000000000    0.0000000000000000   -0.4974364878015465
   Co   Fe   Ta
     1     6     1
Direct
  0.0000000000000000 -0.0000000000000000 -0.0000000000000000
  0.2358145831686314  0.2358145831686314  0.5000000000000000
  0.7641854168313686  0.7641854168313686  0.5000000000000000
  0.7487079848732201  0.2512920151267800  0.5000000000000000
  0.2512920151267800  0.7487079848732201  0.5000000000000000
  0.0000000000000000  0.5000000000000000 -0.0000000000000000
  0.5000000000000000 -0.0000000000000000 -0.0000000000000000
  0.5000000000000000  0.5000000000000000 -0.0000000000000000
 
  0.00000000E+00  0.00000000E+00  0.00000000E+00
  0.00000000E+00  0.00000000E+00  0.00000000E+00
  0.00000000E+00  0.00000000E+00  0.00000000E+00
  0.00000000E+00  0.00000000E+00  0.00000000E+00
  0.00000000E+00  0.00000000E+00  0.00000000E+00
  0.00000000E+00  0.00000000E+00  0.00000000E+00
  0.00000000E+00  0.00000000E+00  0.00000000E+00
  0.00000000E+00  0.00000000E+00  0.00000000E+00
