#12 (C 2/m) [unique axis c] cell choice 
   5.03938000243941     
    -0.3355660669794244    0.0000000000000000    0.9412836598951330
     0.4978415020550604    0.8124466646304606   -0.0001864020168278
    -0.4978415020550604    0.8124466646304606    0.0001864020168278
   Co   Fe   Ta
     1     6     1
Direct
  0.0000000000000000 -0.0000000000000000  0.0000000000000000
  0.2431162812300661  0.9907587012282567  0.5031274714174222
  0.7568837187699339  0.5031274714174222  0.9907587012282567
  0.7568837187699339  0.0092412987717432  0.4968725285825778
  0.2431162812300661  0.4968725285825778  0.0092412987717432
  0.5000000000000000 -0.0000000000000000  0.0000000000000000
  0.0000000000000000  0.5000000000000000  0.5000000000000000
  0.5000000000000000  0.5000000000000000  0.5000000000000000
 
  0.00000000E+00  0.00000000E+00  0.00000000E+00
  0.00000000E+00  0.00000000E+00  0.00000000E+00
  0.00000000E+00  0.00000000E+00  0.00000000E+00
  0.00000000E+00  0.00000000E+00  0.00000000E+00
  0.00000000E+00  0.00000000E+00  0.00000000E+00
  0.00000000E+00  0.00000000E+00  0.00000000E+00
  0.00000000E+00  0.00000000E+00  0.00000000E+00
  0.00000000E+00  0.00000000E+00  0.00000000E+00
