#59-P21/m21/m2/n(originchoice2)         
   1.00000000115035     
     3.0175508264611710    0.0000000000000000    0.0000000000000000
     0.0000000000000000    3.9154330185390824    0.0000000000000000
     0.0000000000000000    0.0000000000000000    6.4180800221429983
   Fe   Ge
     4     2
Direct
  0.2500000000000000  0.2500000000000000  0.0210998970840421
  0.7500000000000000  0.7500000000000000  0.9789001029159579
  0.2500000000000000  0.7500000000000000  0.6526476647375077
  0.7500000000000000  0.2500000000000000  0.3473523352624923
  0.2500000000000000  0.7500000000000000  0.2800621654112305
  0.7500000000000000  0.2500000000000000  0.7199378345887695
 
  0.00000000E+00  0.00000000E+00  0.00000000E+00
  0.00000000E+00  0.00000000E+00  0.00000000E+00
  0.00000000E+00  0.00000000E+00  0.00000000E+00
  0.00000000E+00  0.00000000E+00  0.00000000E+00
  0.00000000E+00  0.00000000E+00  0.00000000E+00
  0.00000000E+00  0.00000000E+00  0.00000000E+00
