#11-P121/m1                             
   1.00000000046064     
     4.9377741742844679    0.0000000000000000   -0.0054824447639932
     0.0000000000000000    3.9488662169426960    0.0000000000000000
    -1.8420819227693228    0.0000000000000000   11.8974698607689042
   Fe   Ge
    12     6
Direct
  0.0474275756342593  0.2500000000000000  0.2455850171249168
  0.9525724243657407  0.7500000000000000  0.7544149828750832
  0.5547494649931650  0.2500000000000000  0.2544419097183166
  0.4452505350068350  0.7500000000000000  0.7455580902816834
  0.8698315137283004  0.2500000000000000  0.4597992456539615
  0.1301684862716996  0.7500000000000000  0.5402007543460385
  0.1042238767543822  0.2500000000000000  0.0478849537724102
  0.8957761232456178  0.7500000000000000  0.9521150462275898
  0.6020140122002715  0.2500000000000000  0.0491153931168284
  0.3979859877997285  0.7500000000000000  0.9508846068831716
  0.1905600886855083  0.2500000000000000  0.8557149876694723
  0.8094399113144917  0.7500000000000000  0.1442850123305277
  0.3597225751098776  0.2500000000000000  0.4303210803344797
  0.6402774248901224  0.7500000000000000  0.5696789196655203
  0.1549482468303225  0.2500000000000000  0.6573532498984562
  0.8450517531696846  0.7500000000000000  0.3426467501015438
  0.6876784429391805  0.2500000000000000  0.8423769596477229
  0.3123215570608195  0.7500000000000000  0.1576230403522771
 
  0.00000000E+00  0.00000000E+00  0.00000000E+00
  0.00000000E+00  0.00000000E+00  0.00000000E+00
  0.00000000E+00  0.00000000E+00  0.00000000E+00
  0.00000000E+00  0.00000000E+00  0.00000000E+00
  0.00000000E+00  0.00000000E+00  0.00000000E+00
  0.00000000E+00  0.00000000E+00  0.00000000E+00
  0.00000000E+00  0.00000000E+00  0.00000000E+00
  0.00000000E+00  0.00000000E+00  0.00000000E+00
  0.00000000E+00  0.00000000E+00  0.00000000E+00
  0.00000000E+00  0.00000000E+00  0.00000000E+00
  0.00000000E+00  0.00000000E+00  0.00000000E+00
  0.00000000E+00  0.00000000E+00  0.00000000E+00
  0.00000000E+00  0.00000000E+00  0.00000000E+00
  0.00000000E+00  0.00000000E+00  0.00000000E+00
  0.00000000E+00  0.00000000E+00  0.00000000E+00
  0.00000000E+00  0.00000000E+00  0.00000000E+00
  0.00000000E+00  0.00000000E+00  0.00000000E+00
  0.00000000E+00  0.00000000E+00  0.00000000E+00
