#11-P121/m1                             
   1.00000000008936     
     4.9544255688578662    0.0000000000000000    0.0102537644680185
     0.0000000000000000    3.9828625971957154    0.0000000000000000
    -1.4892157667212680    0.0000000000000000   11.5784576353522652
   Fe   Ge
    12     6
Direct
  0.4148340552804299  0.2500000000000000  0.3530017057735009
  0.5851659447195701  0.7500000000000000  0.6469982942264991
  0.0860427095573328  0.2500000000000000  0.1417468912656332
  0.9139572904426672  0.7500000000000000  0.8582531087343668
  0.9194204138135191  0.2500000000000000  0.3442839895734480
  0.0805795861864809  0.7500000000000000  0.6557160104265520
  0.6560218895579055  0.2500000000000000  0.9472462001258606
  0.3439781104420945  0.7500000000000000  0.0527537998741394
  0.1599837672901430  0.2500000000000000  0.9421317066423853
  0.8400162327098570  0.7500000000000000  0.0578682933576147
  0.8170688865140079  0.2500000000000000  0.5444280132488686
  0.1829311134859921  0.7500000000000000  0.4555719867511314
  0.8455132113876900  0.2500000000000000  0.7481442497947270
  0.1544867886123100  0.7500000000000000  0.2518557502052730
  0.5925561445247567  0.2500000000000000  0.1568202098798182
  0.4074438554752433  0.7500000000000000  0.8431797901201818
  0.3180903558435020  0.2500000000000000  0.5722285247368646
  0.6819096441564980  0.7500000000000000  0.4277714752631354
 
  0.00000000E+00  0.00000000E+00  0.00000000E+00
  0.00000000E+00  0.00000000E+00  0.00000000E+00
  0.00000000E+00  0.00000000E+00  0.00000000E+00
  0.00000000E+00  0.00000000E+00  0.00000000E+00
  0.00000000E+00  0.00000000E+00  0.00000000E+00
  0.00000000E+00  0.00000000E+00  0.00000000E+00
  0.00000000E+00  0.00000000E+00  0.00000000E+00
  0.00000000E+00  0.00000000E+00  0.00000000E+00
  0.00000000E+00  0.00000000E+00  0.00000000E+00
  0.00000000E+00  0.00000000E+00  0.00000000E+00
  0.00000000E+00  0.00000000E+00  0.00000000E+00
  0.00000000E+00  0.00000000E+00  0.00000000E+00
  0.00000000E+00  0.00000000E+00  0.00000000E+00
  0.00000000E+00  0.00000000E+00  0.00000000E+00
  0.00000000E+00  0.00000000E+00  0.00000000E+00
  0.00000000E+00  0.00000000E+00  0.00000000E+00
  0.00000000E+00  0.00000000E+00  0.00000000E+00
  0.00000000E+00  0.00000000E+00  0.00000000E+00
