#11-P121/m1                             
  0.999999999228835     
     3.9514489299156921    0.0000000000000000   -0.0169389974604585
     0.0000000000000000    3.0748125020701762    0.0000000000000000
    -1.0846634554191710    0.0000000000000000    6.2266483243530164
   Fe   Ge
     4     2
Direct
  0.2551572107003821  0.2500000000000000  0.0147962508292139
  0.7448427892996179  0.7500000000000000  0.9852037491707861
  0.6358427371519539  0.2500000000000000  0.6585903445403929
  0.3641572628480461  0.7500000000000000  0.3414096554596071
  0.8418483738743205  0.2500000000000000  0.2947656120447348
  0.1581516261256795  0.7500000000000000  0.7052343879552652
 
  0.00000000E+00  0.00000000E+00  0.00000000E+00
  0.00000000E+00  0.00000000E+00  0.00000000E+00
  0.00000000E+00  0.00000000E+00  0.00000000E+00
  0.00000000E+00  0.00000000E+00  0.00000000E+00
  0.00000000E+00  0.00000000E+00  0.00000000E+00
  0.00000000E+00  0.00000000E+00  0.00000000E+00
