#44-Imm2                                
   1.00000000065694     
     3.8806591061471467    0.0000000000000000    0.0000000000000000
     0.0000000000000000    4.9755174874217243    0.0000000000000000
     0.0000000000000000    0.0000000000000000   11.8500208999736270
   Fe   Ge
    12     6
Direct
  0.0000000000000000  0.2481949228230604  0.9361975865375669
  0.0000000000000000  0.7518050771769396  0.9361975865375669
  0.5000000000000000  0.7481949228230604  0.4361975865375669
  0.5000000000000000  0.2518050771769396  0.4361975865375669
  0.0000000000000000  0.0000000000000000  0.7272608054072620
  0.5000000000000000  0.5000000000000000  0.2272608054072620
  0.0000000000000000  0.5000000000000000  0.5451464727996012
  0.5000000000000000  0.0000000000000000  0.0451464727996012
  0.0000000000000000  0.2433621409663047  0.1445438689211471
  0.0000000000000000  0.7566378590336953  0.1445438689211471
  0.5000000000000000  0.7433621409663047  0.6445438689211471
  0.5000000000000000  0.2566378590336953  0.6445438689211471
  0.0000000000000000  0.5000000000000000  0.7548431146002343
  0.5000000000000000  0.0000000000000000  0.2548431146002343
  0.0000000000000000  0.5000000000000000  0.3415925316206554
  0.5000000000000000  0.0000000000000000  0.8415925316206554
  0.0000000000000000  0.0000000000000000  0.5205941646547956
  0.5000000000000000  0.5000000000000000  0.0205941646547956
 
  0.00000000E+00  0.00000000E+00  0.00000000E+00
  0.00000000E+00  0.00000000E+00  0.00000000E+00
  0.00000000E+00  0.00000000E+00  0.00000000E+00
  0.00000000E+00  0.00000000E+00  0.00000000E+00
  0.00000000E+00  0.00000000E+00  0.00000000E+00
  0.00000000E+00  0.00000000E+00  0.00000000E+00
  0.00000000E+00  0.00000000E+00  0.00000000E+00
  0.00000000E+00  0.00000000E+00  0.00000000E+00
  0.00000000E+00  0.00000000E+00  0.00000000E+00
  0.00000000E+00  0.00000000E+00  0.00000000E+00
  0.00000000E+00  0.00000000E+00  0.00000000E+00
  0.00000000E+00  0.00000000E+00  0.00000000E+00
  0.00000000E+00  0.00000000E+00  0.00000000E+00
  0.00000000E+00  0.00000000E+00  0.00000000E+00
  0.00000000E+00  0.00000000E+00  0.00000000E+00
  0.00000000E+00  0.00000000E+00  0.00000000E+00
  0.00000000E+00  0.00000000E+00  0.00000000E+00
  0.00000000E+00  0.00000000E+00  0.00000000E+00
