#25-Pmm2                                
  0.999999999356457     
     4.0939690328375598    0.0000000000000000    0.0000000000000000
     0.0000000000000000    4.9771317221848914    0.0000000000000000
     0.0000000000000000    0.0000000000000000   11.3334687910094587
   Fe   Ge
    12     6
Direct
  0.0000000000000000  0.5000000000000000  0.9338627666617967
  0.0000000000000000  0.0000000000000000  0.3421527461142517
  0.5000000000000000  0.5000000000000000  0.2335133239097118
  0.5000000000000000  0.5000000000000000  0.6204027319469887
  0.0000000000000000  0.2500955093490731  0.1334756090164575
  0.0000000000000000  0.7499044906509269  0.1334756090164575
  0.0000000000000000  0.7576752678455989  0.5442754484138845
  0.0000000000000000  0.2423247321544011  0.5442754484138845
  0.5000000000000000  0.2467157518838405  0.8299279783595139
  0.5000000000000000  0.7532842481161595  0.8299279783595139
  0.5000000000000000  0.2368875645816004  0.4208527246413993
  0.5000000000000000  0.7631124354183996  0.4208527246413993
  0.0000000000000000  0.5000000000000000  0.7313546921184013
  0.5000000000000000  0.0000000000000000  0.2098187886164524
  0.0000000000000000  0.5000000000000000  0.3504475454475084
  0.0000000000000000  0.0000000000000000  0.9279706246406789
  0.5000000000000000  0.0000000000000000  0.6322613586429284
  0.5000000000000000  0.5000000000000000  0.0292619010387654
 
  0.00000000E+00  0.00000000E+00  0.00000000E+00
  0.00000000E+00  0.00000000E+00  0.00000000E+00
  0.00000000E+00  0.00000000E+00  0.00000000E+00
  0.00000000E+00  0.00000000E+00  0.00000000E+00
  0.00000000E+00  0.00000000E+00  0.00000000E+00
  0.00000000E+00  0.00000000E+00  0.00000000E+00
  0.00000000E+00  0.00000000E+00  0.00000000E+00
  0.00000000E+00  0.00000000E+00  0.00000000E+00
  0.00000000E+00  0.00000000E+00  0.00000000E+00
  0.00000000E+00  0.00000000E+00  0.00000000E+00
  0.00000000E+00  0.00000000E+00  0.00000000E+00
  0.00000000E+00  0.00000000E+00  0.00000000E+00
  0.00000000E+00  0.00000000E+00  0.00000000E+00
  0.00000000E+00  0.00000000E+00  0.00000000E+00
  0.00000000E+00  0.00000000E+00  0.00000000E+00
  0.00000000E+00  0.00000000E+00  0.00000000E+00
  0.00000000E+00  0.00000000E+00  0.00000000E+00
  0.00000000E+00  0.00000000E+00  0.00000000E+00
