#164-P-32/m1                            
  0.999999999296771     
     5.0694852917031881    0.0000000000000000    0.0000000000000000
    -2.5347426458515940    4.3903030467265252    0.0000000000000000
     0.0000000000000000    0.0000000000000000   10.4316907003052926
   Fe   Ge
    12     6
Direct
  0.5035754974754525  0.4964245025245475  0.6930967987476677
  0.5035754974754525  0.0071509949508979  0.6930967987476677
  0.9928490050491021  0.4964245025245475  0.6930967987476677
  0.0071509949508979  0.5035754974754525  0.3069032012523323
  0.4964245025245475  0.5035754974754525  0.3069032012523323
  0.4964245025245475  0.9928490050491021  0.3069032012523323
  0.1674878471600394  0.8325121528399606  0.1006725073158989
  0.1674878471600394  0.3349756943200788  0.1006725073158989
  0.6650243056799212  0.8325121528399606  0.1006725073158989
  0.3349756943200788  0.1674878471600394  0.8993274926841011
  0.8325121528399606  0.1674878471600394  0.8993274926841011
  0.8325121528399606  0.6650243056799212  0.8993274926841011
  0.3333299999999966  0.6666700000000034  0.5025602018961095
  0.6666600000000003  0.3333299999999966  0.4974397981038905
  0.0000000000000000  0.0000000000000000  0.6983871729008158
  0.0000000000000000  0.0000000000000000  0.3016128270991842
  0.3333299999999966  0.6666700000000034  0.8934690185512082
  0.6666600000000003  0.3333299999999966  0.1065309814487918
 
  0.00000000E+00  0.00000000E+00  0.00000000E+00
  0.00000000E+00  0.00000000E+00  0.00000000E+00
  0.00000000E+00  0.00000000E+00  0.00000000E+00
  0.00000000E+00  0.00000000E+00  0.00000000E+00
  0.00000000E+00  0.00000000E+00  0.00000000E+00
  0.00000000E+00  0.00000000E+00  0.00000000E+00
  0.00000000E+00  0.00000000E+00  0.00000000E+00
  0.00000000E+00  0.00000000E+00  0.00000000E+00
  0.00000000E+00  0.00000000E+00  0.00000000E+00
  0.00000000E+00  0.00000000E+00  0.00000000E+00
  0.00000000E+00  0.00000000E+00  0.00000000E+00
  0.00000000E+00  0.00000000E+00  0.00000000E+00
  0.00000000E+00  0.00000000E+00  0.00000000E+00
  0.00000000E+00  0.00000000E+00  0.00000000E+00
  0.00000000E+00  0.00000000E+00  0.00000000E+00
  0.00000000E+00  0.00000000E+00  0.00000000E+00
  0.00000000E+00  0.00000000E+00  0.00000000E+00
  0.00000000E+00  0.00000000E+00  0.00000000E+00
