#31-Pmn21                               
   1.00000000046868     
     3.9672098564437599    0.0000000000000000    0.0000000000000000
     0.0000000000000000    5.0307687078886101    0.0000000000000000
     0.0000000000000000    0.0000000000000000    7.3139013340748908
   Fe   Ge
     8     4
Direct
  0.0000000000000000  0.1942911371848624  0.7202071229015274
  0.5000000000000000  0.8057088628151376  0.2202071229015274
  0.0000000000000000  0.6907156482023851  0.7035158405773245
  0.5000000000000000  0.3092843517976149  0.2035158405773245
  0.0000000000000000  0.0198625149579144  0.3929741054790199
  0.5000000000000000  0.9801374850420856  0.8929741054790199
  0.0000000000000000  0.6078560865908926  0.0483022523358372
  0.5000000000000000  0.3921439134091074  0.5483022523358372
  0.0000000000000000  0.0903186860788381  0.0645783932824884
  0.5000000000000000  0.9096813139211619  0.5645783932824884
  0.0000000000000000  0.5150502967478445  0.3757222854237980
  0.5000000000000000  0.4849497032521555  0.8757222854237980
 
  0.00000000E+00  0.00000000E+00  0.00000000E+00
  0.00000000E+00  0.00000000E+00  0.00000000E+00
  0.00000000E+00  0.00000000E+00  0.00000000E+00
  0.00000000E+00  0.00000000E+00  0.00000000E+00
  0.00000000E+00  0.00000000E+00  0.00000000E+00
  0.00000000E+00  0.00000000E+00  0.00000000E+00
  0.00000000E+00  0.00000000E+00  0.00000000E+00
  0.00000000E+00  0.00000000E+00  0.00000000E+00
  0.00000000E+00  0.00000000E+00  0.00000000E+00
  0.00000000E+00  0.00000000E+00  0.00000000E+00
  0.00000000E+00  0.00000000E+00  0.00000000E+00
  0.00000000E+00  0.00000000E+00  0.00000000E+00
