#6-P1m1                                 
   1.00000000025484     
     4.9607564263935062    0.0000000000000000   -0.0079104648859899
     0.0000000000000000    3.9364991960955558    0.0000000000000000
    -1.8283091115104706    0.0000000000000000   11.6423519946194940
   Fe   Ge
    12     6
Direct
  0.5687047870399624  0.5000000000000000  0.5251623905858267
  0.1248213725965712  0.5000000000000000  0.3190274102706852
  0.3463924290517326  0.0000000000000000  0.4202535513476207
  0.4157553568757848  0.0000000000000000  0.2164885914492842
  0.1856405631853164  0.5000000000000000  0.1154071205813239
  0.8549627445567012  0.0000000000000000  0.6174841349162463
  0.1713331175599890  0.0000000000000000  0.8123094455194817
  0.6747126511781047  0.0000000000000000  0.8157932070831819
  0.0737738286041036  0.5000000000000000  0.5288692214805479
  0.6165639941424743  0.5000000000000000  0.3202316535028089
  0.4826956689919797  0.0000000000000000  0.0099889054333460
  0.9206469566579401  0.0000000000000000  0.2066401749208708
  0.4435252309706073  0.5000000000000000  0.8789488184964327
  0.3608528445699690  0.0000000000000000  0.6316530960974518
  0.8448238781294819  0.0000000000000000  0.4103116978601307
  0.8946202047155367  0.5000000000000000  0.7416381402420669
  0.6798332105896989  0.5000000000000000  0.1191235763475689
  0.9938711605840354  0.0000000000000000  0.9975788638651366
 
  0.00000000E+00  0.00000000E+00  0.00000000E+00
  0.00000000E+00  0.00000000E+00  0.00000000E+00
  0.00000000E+00  0.00000000E+00  0.00000000E+00
  0.00000000E+00  0.00000000E+00  0.00000000E+00
  0.00000000E+00  0.00000000E+00  0.00000000E+00
  0.00000000E+00  0.00000000E+00  0.00000000E+00
  0.00000000E+00  0.00000000E+00  0.00000000E+00
  0.00000000E+00  0.00000000E+00  0.00000000E+00
  0.00000000E+00  0.00000000E+00  0.00000000E+00
  0.00000000E+00  0.00000000E+00  0.00000000E+00
  0.00000000E+00  0.00000000E+00  0.00000000E+00
  0.00000000E+00  0.00000000E+00  0.00000000E+00
  0.00000000E+00  0.00000000E+00  0.00000000E+00
  0.00000000E+00  0.00000000E+00  0.00000000E+00
  0.00000000E+00  0.00000000E+00  0.00000000E+00
  0.00000000E+00  0.00000000E+00  0.00000000E+00
  0.00000000E+00  0.00000000E+00  0.00000000E+00
  0.00000000E+00  0.00000000E+00  0.00000000E+00
