#11-P121/m1                             
   1.00000000058659     
     4.9810874657431059    0.0000000000000000   -0.0257353308925654
     0.0000000000000000    4.0022342201992505    0.0000000000000000
    -1.5204766027663470    0.0000000000000000   11.4561314265995229
   Fe   Ge
    12     6
Direct
  0.5550979227123776  0.2500000000000000  0.1466656283603811
  0.4449020772876224  0.7500000000000000  0.8533343716396189
  0.3374840023355148  0.2500000000000000  0.5548012137237706
  0.6625159976644852  0.7500000000000000  0.4451987862762294
  0.0440214866822402  0.2500000000000000  0.1496676500891496
  0.9559785133177598  0.7500000000000000  0.8503323499108575
  0.4356934129501155  0.2500000000000000  0.3510164978848422
  0.5643065870498845  0.7500000000000000  0.6489835021151578
  0.1841806072717773  0.2500000000000000  0.7574902087074236
  0.8158193927282227  0.7500000000000000  0.2425097912925764
  0.8230081311559090  0.2500000000000000  0.5627791966128868
  0.1769918688440910  0.7500000000000000  0.4372208033871132
  0.9327582807221475  0.2500000000000000  0.3592783034100648
  0.0672417192778525  0.7500000000000000  0.6407216965899352
  0.2293044275869036  0.2500000000000000  0.9655897376269209
  0.7706955724130964  0.7500000000000000  0.0344102623730791
  0.6862078868050858  0.2500000000000000  0.7758530371823014
  0.3137921131949213  0.7500000000000000  0.2241469628176986
 
  0.00000000E+00  0.00000000E+00  0.00000000E+00
  0.00000000E+00  0.00000000E+00  0.00000000E+00
  0.00000000E+00  0.00000000E+00  0.00000000E+00
  0.00000000E+00  0.00000000E+00  0.00000000E+00
  0.00000000E+00  0.00000000E+00  0.00000000E+00
  0.00000000E+00  0.00000000E+00  0.00000000E+00
  0.00000000E+00  0.00000000E+00  0.00000000E+00
  0.00000000E+00  0.00000000E+00  0.00000000E+00
  0.00000000E+00  0.00000000E+00  0.00000000E+00
  0.00000000E+00  0.00000000E+00  0.00000000E+00
  0.00000000E+00  0.00000000E+00  0.00000000E+00
  0.00000000E+00  0.00000000E+00  0.00000000E+00
  0.00000000E+00  0.00000000E+00  0.00000000E+00
  0.00000000E+00  0.00000000E+00  0.00000000E+00
  0.00000000E+00  0.00000000E+00  0.00000000E+00
  0.00000000E+00  0.00000000E+00  0.00000000E+00
  0.00000000E+00  0.00000000E+00  0.00000000E+00
  0.00000000E+00  0.00000000E+00  0.00000000E+00
