#10 (P 2/m) [unique axis c]             
   4.82886999484563     
     0.1848563324919246    0.0000000000000000   -1.0246833672705951
    -0.9980469209123034    0.0000000000000000    0.0001427060632546
     0.0000000000000000    0.8432559358503771    0.0000000000000000
   Fe   Ta
     7     1
Direct
  0.2574794781247376  0.5060082029275695  0.0000000000000000
  0.7425205218752625  0.4939917970724303  0.0000000000000000
  0.3762031624839064  0.2522521612804238  0.5000000000000000
  0.6237968375160936  0.7477478387195763  0.5000000000000000
  0.1334385190018888  0.7396710335748820  0.5000000000000000
  0.8665614809981111  0.2603289664251180  0.5000000000000000
  0.5000000000000000  0.0000000000000000 -0.0000000000000000
 -0.0000000000000000  0.0000000000000000 -0.0000000000000000
 
  0.00000000E+00  0.00000000E+00  0.00000000E+00
  0.00000000E+00  0.00000000E+00  0.00000000E+00
  0.00000000E+00  0.00000000E+00  0.00000000E+00
  0.00000000E+00  0.00000000E+00  0.00000000E+00
  0.00000000E+00  0.00000000E+00  0.00000000E+00
  0.00000000E+00  0.00000000E+00  0.00000000E+00
  0.00000000E+00  0.00000000E+00  0.00000000E+00
  0.00000000E+00  0.00000000E+00  0.00000000E+00
