#65 (C m m m)                           
   8.19094000543025     
    -0.4983844418807787    0.3560002156817653    0.0000000000000000
     0.4983844418807787    0.3560002156817653    0.0000000000000000
     0.0000000000000000    0.0000000000000000   -0.4972409575411599
   Fe   Ta
     7     1
Direct
  0.2504723405115222  0.7495276594884778  0.5000000000000000
  0.7495276594884778  0.2504723405115222  0.5000000000000000
  0.0000000000000000  0.5000000000000000  0.0000000000000000
  0.5000000000000000  0.0000000000000000  0.0000000000000000
  0.5000000000000000  0.5000000000000000  0.0000000000000000
  0.7377764509643135  0.7377764509643135  0.5000000000000000
  0.2622235490356865  0.2622235490356865  0.5000000000000000
  0.0000000000000000  0.0000000000000000  0.0000000000000000
 
  0.00000000E+00  0.00000000E+00  0.00000000E+00
  0.00000000E+00  0.00000000E+00  0.00000000E+00
  0.00000000E+00  0.00000000E+00  0.00000000E+00
  0.00000000E+00  0.00000000E+00  0.00000000E+00
  0.00000000E+00  0.00000000E+00  0.00000000E+00
  0.00000000E+00  0.00000000E+00  0.00000000E+00
  0.00000000E+00  0.00000000E+00  0.00000000E+00
  0.00000000E+00  0.00000000E+00  0.00000000E+00
