Al1 Fe1
1.0
  2.845589  0.000000  0.000000
  0.000000  2.845589  0.000000
  0.000000  0.000000  2.932693
Al Fe
1 1
direct
0.000000 0.000000 0.000000 Al
0.500000 0.500000 0.500000 Fe
