Hf1 Co1
1.0
  3.118577  0.000000  0.000000
  0.000000  3.118577  0.000000
  0.000000  0.000000  3.214037
Hf Co
1 1
direct
0.000000 0.000000 0.000000 Hf
0.500000 0.500000 0.500000 Co
