Ga1 Ni3
1.0
  3.538632  0.000000  0.000000
  0.000000  3.538632  0.000000
  0.000000  0.000000  3.646950
Ga Ni
1 3
direct
0.000000 0.000000 0.000000 Ga
0.500000 0.000000 0.500000 Ni
0.000000 0.500000 0.500000 Ni
0.500000 0.500000 0.000000 Ni
