Mn4 In4 Cu8
1.0
  6.118298  0.000000  0.000000
  0.000000  6.118298  0.000000
  0.000000  0.000000  6.305580
Mn In Cu
4 4 8
direct
0.000000 0.500000 0.000000 Mn
0.000000 0.000000 0.500000 Mn
0.500000 0.500000 0.500000 Mn
0.500000 0.000000 0.000000 Mn
0.000000 0.000000 0.000000 In
0.000000 0.500000 0.500000 In
0.500000 0.000000 0.500000 In
0.500000 0.500000 0.000000 In
0.250000 0.750000 0.750000 Cu
0.750000 0.250000 0.250000 Cu
0.250000 0.250000 0.250000 Cu
0.750000 0.750000 0.750000 Cu
0.750000 0.750000 0.250000 Cu
0.250000 0.250000 0.750000 Cu
0.750000 0.250000 0.750000 Cu
0.250000 0.750000 0.250000 Cu
