Sc4 V4 Fe4
1.0
  5.720778  0.000000  0.000000
  0.000000  5.720778  0.000000
  0.000000  0.000000  5.895892
Sc V Fe
4 4 4
direct
0.000000 0.000000 0.500000 Sc
0.000000 0.500000 0.000000 Sc
0.500000 0.000000 0.000000 Sc
0.500000 0.500000 0.500000 Sc
0.750000 0.250000 0.750000 V
0.750000 0.750000 0.250000 V
0.250000 0.250000 0.250000 V
0.250000 0.750000 0.750000 V
0.000000 0.000000 0.000000 Fe
0.000000 0.500000 0.500000 Fe
0.500000 0.000000 0.500000 Fe
0.500000 0.500000 0.000000 Fe
