Ta4 Mn8 Al4
1.0
  5.938194  0.000000  0.000000
  0.000000  5.938194  0.000000
  0.000000  0.000000  6.119963
Ta Mn Al
4 8 4
direct
0.000000 0.000000 0.500000 Ta
0.000000 0.500000 0.000000 Ta
0.500000 0.000000 0.000000 Ta
0.500000 0.500000 0.500000 Ta
0.250000 0.750000 0.750000 Mn
0.250000 0.750000 0.250000 Mn
0.250000 0.250000 0.250000 Mn
0.250000 0.250000 0.750000 Mn
0.750000 0.750000 0.250000 Mn
0.750000 0.750000 0.750000 Mn
0.750000 0.250000 0.750000 Mn
0.750000 0.250000 0.250000 Mn
0.000000 0.000000 0.000000 Al
0.000000 0.500000 0.500000 Al
0.500000 0.000000 0.500000 Al
0.500000 0.500000 0.000000 Al
