Cr4 Ge4 Rh4
1.0
  5.758081  0.000000  0.000000
  0.000000  5.758081  0.000000
  0.000000  0.000000  5.934336
Cr Ge Rh
4 4 4
direct
0.000000 0.500000 0.000000 Cr
0.000000 0.000000 0.500000 Cr
0.500000 0.500000 0.500000 Cr
0.500000 0.000000 0.000000 Cr
0.750000 0.250000 0.250000 Ge
0.750000 0.750000 0.750000 Ge
0.250000 0.250000 0.750000 Ge
0.250000 0.750000 0.250000 Ge
0.000000 0.000000 0.000000 Rh
0.000000 0.500000 0.500000 Rh
0.500000 0.000000 0.500000 Rh
0.500000 0.500000 0.000000 Rh
