Tl4 Co4 Bi4
1.0
  6.870686  0.000000  0.000000
  0.000000  6.870686  0.000000
  0.000000  0.000000  7.080999
Tl Co Bi
4 4 4
direct
0.000000 0.000000 0.500000 Tl
0.000000 0.500000 0.000000 Tl
0.500000 0.000000 0.000000 Tl
0.500000 0.500000 0.500000 Tl
0.000000 0.000000 0.000000 Co
0.000000 0.500000 0.500000 Co
0.500000 0.000000 0.500000 Co
0.500000 0.500000 0.000000 Co
0.750000 0.250000 0.750000 Bi
0.750000 0.750000 0.250000 Bi
0.250000 0.250000 0.250000 Bi
0.250000 0.750000 0.750000 Bi
