Mg8 Nb4 Fe4
1.0
  6.315507  0.000000  0.000000
  0.000000  6.315507  0.000000
  0.000000  0.000000  6.508826
Mg Nb Fe
8 4 4
direct
0.750000 0.250000 0.250000 Mg
0.750000 0.250000 0.750000 Mg
0.750000 0.750000 0.750000 Mg
0.750000 0.750000 0.250000 Mg
0.250000 0.250000 0.750000 Mg
0.250000 0.250000 0.250000 Mg
0.250000 0.750000 0.250000 Mg
0.250000 0.750000 0.750000 Mg
0.000000 0.000000 0.500000 Nb
0.000000 0.500000 0.000000 Nb
0.500000 0.000000 0.000000 Nb
0.500000 0.500000 0.500000 Nb
0.000000 0.000000 0.000000 Fe
0.000000 0.500000 0.500000 Fe
0.500000 0.000000 0.500000 Fe
0.500000 0.500000 0.000000 Fe
