Be4 V4 Fe8
1.0
  5.452587  0.000000  0.000000
  0.000000  5.452587  0.000000
  0.000000  0.000000  5.619492
Be V Fe
4 4 8
direct
0.500000 0.000000 0.500000 Be
0.500000 0.500000 0.000000 Be
0.000000 0.000000 0.000000 Be
0.000000 0.500000 0.500000 Be
0.000000 0.500000 0.000000 V
0.000000 0.000000 0.500000 V
0.500000 0.500000 0.500000 V
0.500000 0.000000 0.000000 V
0.250000 0.250000 0.750000 Fe
0.250000 0.250000 0.250000 Fe
0.250000 0.750000 0.250000 Fe
0.250000 0.750000 0.750000 Fe
0.750000 0.250000 0.250000 Fe
0.750000 0.250000 0.750000 Fe
0.750000 0.750000 0.750000 Fe
0.750000 0.750000 0.250000 Fe
