Tl4 Co4 Mo8
1.0
  6.306310  0.000000  0.000000
  0.000000  6.306310  0.000000
  0.000000  0.000000  6.499347
Tl Co Mo
4 4 8
direct
0.250000 0.750000 0.750000 Tl
0.250000 0.250000 0.250000 Tl
0.750000 0.750000 0.250000 Tl
0.750000 0.250000 0.750000 Tl
0.000000 0.500000 0.000000 Co
0.000000 0.000000 0.500000 Co
0.500000 0.500000 0.500000 Co
0.500000 0.000000 0.000000 Co
0.000000 0.000000 0.000000 Mo
0.750000 0.250000 0.250000 Mo
0.000000 0.500000 0.500000 Mo
0.750000 0.750000 0.750000 Mo
0.500000 0.000000 0.500000 Mo
0.250000 0.250000 0.750000 Mo
0.500000 0.500000 0.000000 Mo
0.250000 0.750000 0.250000 Mo
