Sc3 Mn3 Rh6
1.0
  2.198479 -3.846342  0.000000
  2.220686  3.807879  0.000000
  0.000000  0.000000 11.114653
Sc Mn Rh
3 3 6
direct
0.000000 0.000000 0.500000 Sc
0.666667 0.333333 0.833333 Sc
0.333333 0.666667 0.166667 Sc
0.000000 0.000000 0.000000 Mn
0.666667 0.333333 0.333333 Mn
0.333333 0.666667 0.666667 Mn
0.000000 0.000000 0.250017 Rh
0.666667 0.333333 0.583350 Rh
0.333333 0.666667 0.916683 Rh
0.000000 0.000000 0.749983 Rh
0.666667 0.333333 0.083317 Rh
0.333333 0.666667 0.416650 Rh
