Co4 Si4
1.0
  4.388866  0.000000  0.000000
  0.000000  4.388866  0.000000
  0.000000  0.000000  4.523210
Co Si
4 4
direct
0.854900 0.645100 0.354900 Co
0.645100 0.354900 0.854900 Co
0.354900 0.854900 0.645100 Co
0.145100 0.145100 0.145100 Co
0.156804 0.343196 0.656804 Si
0.343196 0.656804 0.156804 Si
0.656804 0.156804 0.343196 Si
0.843196 0.843196 0.843196 Si
