Mn4 Tc4 Os4
1.0
  5.782755  0.000000  0.000000
  0.000000  5.782755  0.000000
  0.000000  0.000000  5.959766
Mn Tc Os
4 4 4
direct
0.000000 0.000000 0.000000 Mn
0.000000 0.500000 0.500000 Mn
0.500000 0.000000 0.500000 Mn
0.500000 0.500000 0.000000 Mn
0.750000 0.250000 0.250000 Tc
0.750000 0.750000 0.750000 Tc
0.250000 0.250000 0.750000 Tc
0.250000 0.750000 0.250000 Tc
0.000000 0.000000 0.500000 Os
0.000000 0.500000 0.000000 Os
0.500000 0.000000 0.000000 Os
0.500000 0.500000 0.500000 Os
