Si8 Ni4
1.0
  5.391094  0.000000  0.000000
  0.000000  5.391094  0.000000
  0.000000  0.000000  5.556117
Si Ni
8 4
direct
0.250000 0.750000 0.750000 Si
0.750000 0.250000 0.250000 Si
0.250000 0.250000 0.250000 Si
0.750000 0.750000 0.750000 Si
0.750000 0.750000 0.250000 Si
0.250000 0.250000 0.750000 Si
0.750000 0.250000 0.750000 Si
0.250000 0.750000 0.250000 Si
0.000000 0.000000 0.000000 Ni
0.000000 0.500000 0.500000 Ni
0.500000 0.000000 0.500000 Ni
0.500000 0.500000 0.000000 Ni
