Mg4 Fe4 Rh8
1.0
  6.051317  0.000000  0.000000
  0.000000  6.051317  0.000000
  0.000000  0.000000  6.236548
Mg Fe Rh
4 4 8
direct
0.000000 0.000000 0.500000 Mg
0.000000 0.500000 0.000000 Mg
0.500000 0.000000 0.000000 Mg
0.500000 0.500000 0.500000 Mg
0.000000 0.000000 0.000000 Fe
0.000000 0.500000 0.500000 Fe
0.500000 0.000000 0.500000 Fe
0.500000 0.500000 0.000000 Fe
0.250000 0.750000 0.750000 Rh
0.250000 0.750000 0.250000 Rh
0.250000 0.250000 0.250000 Rh
0.250000 0.250000 0.750000 Rh
0.750000 0.750000 0.250000 Rh
0.750000 0.750000 0.750000 Rh
0.750000 0.250000 0.750000 Rh
0.750000 0.250000 0.250000 Rh
