Be3 V3 Co6
1.0
  1.925503 -3.368758  0.000000
  1.944953  3.335070  0.000000
  0.000000  0.000000  9.730117
Be V Co
3 3 6
direct
0.000000 0.000000 0.500000 Be
0.666667 0.333333 0.833333 Be
0.333333 0.666667 0.166667 Be
0.000000 0.000000 0.000000 V
0.666667 0.333333 0.333333 V
0.333333 0.666667 0.666667 V
0.000000 0.000000 0.250011 Co
0.666667 0.333333 0.583344 Co
0.333333 0.666667 0.916678 Co
0.000000 0.000000 0.749989 Co
0.666667 0.333333 0.083322 Co
0.333333 0.666667 0.416656 Co
