Mn3 Ir1 N1
1.0
  3.867972  0.000000  0.000000
  0.000000  3.867972  0.000000
  0.000000  0.000000  3.986371
Mn Ir N
3 1 1
direct
0.000000 0.500000 0.500000 Mn
0.500000 0.500000 0.000000 Mn
0.500000 0.000000 0.500000 Mn
0.000000 0.000000 0.000000 Ir
0.500000 0.500000 0.500000 N
