Be8 Co4 Ni4
1.0
  5.134788  0.000000  0.000000
  0.000000  5.134788  0.000000
  0.000000  0.000000  5.291965
Be Co Ni
8 4 4
direct
0.250000 0.250000 0.250000 Be
0.250000 0.250000 0.750000 Be
0.250000 0.750000 0.750000 Be
0.250000 0.750000 0.250000 Be
0.750000 0.250000 0.750000 Be
0.750000 0.250000 0.250000 Be
0.750000 0.750000 0.250000 Be
0.750000 0.750000 0.750000 Be
0.000000 0.500000 0.500000 Co
0.000000 0.000000 0.000000 Co
0.500000 0.500000 0.000000 Co
0.500000 0.000000 0.500000 Co
0.500000 0.000000 0.000000 Ni
0.500000 0.500000 0.500000 Ni
0.000000 0.000000 0.500000 Ni
0.000000 0.500000 0.000000 Ni
