Mn3 Pd1 N1
1.0
  3.903421  0.000000  0.000000
  0.000000  3.903421  0.000000
  0.000000  0.000000  4.022906
Mn Pd N
3 1 1
direct
0.000000 0.500000 0.500000 Mn
0.500000 0.500000 0.000000 Mn
0.500000 0.000000 0.500000 Mn
0.000000 0.000000 0.000000 Pd
0.500000 0.500000 0.500000 N
