Ni4 N1
1.0
  4.184695  0.000000  0.000000
  0.000000  4.184695  0.000000
  0.000000  0.000000  4.312790
Ni N
4 1
direct
0.000000 0.500000 0.500000 Ni
0.500000 0.500000 0.000000 Ni
0.500000 0.000000 0.500000 Ni
0.500000 0.500000 0.500000 Ni
0.000000 0.000000 0.000000 N
