Sc1 Co1
1.0
  3.088315  0.000000  0.000000
  0.000000  3.088315  0.000000
  0.000000  0.000000  3.182849
Sc Co
1 1
direct
0.500000 0.500000 0.500000 Sc
0.000000 0.000000 0.000000 Co
