Zr8 Co14 Ge12
1.0
  7.819738  0.000000  0.000000
  0.000000  7.819738  0.000000
  0.000000  0.000000  8.059101
Zr Co Ge
8 14 12
direct
0.750000 0.750000 0.250000 Zr
0.750000 0.250000 0.750000 Zr
0.750000 0.750000 0.750000 Zr
0.250000 0.750000 0.750000 Zr
0.250000 0.250000 0.750000 Zr
0.250000 0.750000 0.250000 Zr
0.250000 0.250000 0.250000 Zr
0.750000 0.250000 0.250000 Zr
0.000000 0.000000 0.000000 Co
0.250000 0.000000 0.500000 Co
0.000000 0.250000 0.500000 Co
0.500000 0.250000 0.000000 Co
0.000000 0.500000 0.250000 Co
0.500000 0.000000 0.250000 Co
0.250000 0.500000 0.000000 Co
0.500000 0.500000 0.500000 Co
0.750000 0.500000 0.000000 Co
0.500000 0.750000 0.000000 Co
0.000000 0.750000 0.500000 Co
0.500000 0.000000 0.750000 Co
0.000000 0.500000 0.750000 Co
0.750000 0.000000 0.500000 Co
0.000000 0.000000 0.319281 Ge
0.680719 0.000000 0.000000 Ge
0.000000 0.000000 0.680719 Ge
0.000000 0.680719 0.000000 Ge
0.319281 0.000000 0.000000 Ge
0.000000 0.319281 0.000000 Ge
0.500000 0.500000 0.819281 Ge
0.180719 0.500000 0.500000 Ge
0.500000 0.500000 0.180719 Ge
0.500000 0.180719 0.500000 Ge
0.819281 0.500000 0.500000 Ge
0.500000 0.819281 0.500000 Ge
