Tl4 Co4 As8
1.0
  6.661522  0.000000  0.000000
  0.000000  6.661522  0.000000
  0.000000  0.000000  6.865432
Tl Co As
4 4 8
direct
0.000000 0.000000 0.500000 Tl
0.000000 0.500000 0.000000 Tl
0.500000 0.000000 0.000000 Tl
0.500000 0.500000 0.500000 Tl
0.000000 0.000000 0.000000 Co
0.000000 0.500000 0.500000 Co
0.500000 0.000000 0.500000 Co
0.500000 0.500000 0.000000 Co
0.750000 0.250000 0.750000 As
0.750000 0.250000 0.250000 As
0.750000 0.750000 0.250000 As
0.750000 0.750000 0.750000 As
0.250000 0.250000 0.250000 As
0.250000 0.250000 0.750000 As
0.250000 0.750000 0.750000 As
0.250000 0.750000 0.250000 As
