Fe4 N4
1.0
  4.188381  0.000000  0.000000
  0.000000  4.188381  0.000000
  0.000000  0.000000  4.316588
Fe N
4 4
direct
0.000000 0.000000 0.000000 Fe
0.000000 0.500000 0.500000 Fe
0.500000 0.000000 0.500000 Fe
0.500000 0.500000 0.000000 Fe
0.250000 0.750000 0.750000 N
0.250000 0.250000 0.250000 N
0.750000 0.750000 0.250000 N
0.750000 0.250000 0.750000 N
