Cr4 H8
1.0
  4.065174  0.000000  0.000000
  0.000000  4.065174  0.000000
  0.000000  0.000000  4.189609
Cr H
4 8
direct
0.000000 0.000000 0.000000 Cr
0.000000 0.500000 0.500000 Cr
0.500000 0.000000 0.500000 Cr
0.500000 0.500000 0.000000 Cr
0.250000 0.750000 0.250000 H
0.750000 0.250000 0.750000 H
0.250000 0.250000 0.750000 H
0.750000 0.750000 0.250000 H
0.750000 0.750000 0.750000 H
0.250000 0.250000 0.250000 H
0.750000 0.250000 0.250000 H
0.250000 0.750000 0.750000 H
