Al4 Cr4 Cu8
1.0
  5.876010  0.000000  0.000000
  0.000000  5.876010  0.000000
  0.000000  0.000000  6.055876
Al Cr Cu
4 4 8
direct
0.000000 0.000000 0.000000 Al
0.000000 0.500000 0.500000 Al
0.500000 0.000000 0.500000 Al
0.500000 0.500000 0.000000 Al
0.500000 0.000000 0.000000 Cr
0.500000 0.500000 0.500000 Cr
0.000000 0.000000 0.500000 Cr
0.000000 0.500000 0.000000 Cr
0.750000 0.250000 0.750000 Cu
0.250000 0.750000 0.250000 Cu
0.750000 0.750000 0.250000 Cu
0.250000 0.250000 0.750000 Cu
0.250000 0.250000 0.250000 Cu
0.750000 0.750000 0.750000 Cu
0.250000 0.750000 0.750000 Cu
0.750000 0.250000 0.250000 Cu
