Zn4 Ni4 Sb4
1.0
  5.887175  0.000000  0.000000
  0.000000  5.887175  0.000000
  0.000000  0.000000  6.067382
Zn Ni Sb
4 4 4
direct
0.250000 0.750000 0.750000 Zn
0.250000 0.250000 0.250000 Zn
0.750000 0.750000 0.250000 Zn
0.750000 0.250000 0.750000 Zn
0.000000 0.000000 0.000000 Ni
0.000000 0.500000 0.500000 Ni
0.500000 0.000000 0.500000 Ni
0.500000 0.500000 0.000000 Ni
0.750000 0.250000 0.250000 Sb
0.750000 0.750000 0.750000 Sb
0.250000 0.250000 0.750000 Sb
0.250000 0.750000 0.250000 Sb
