Be4 Fe4 Rh8
1.0
  5.768793  0.000000  0.000000
  0.000000  5.768793  0.000000
  0.000000  0.000000  5.945377
Be Fe Rh
4 4 8
direct
0.000000 0.000000 0.000000 Be
0.000000 0.500000 0.500000 Be
0.500000 0.000000 0.500000 Be
0.500000 0.500000 0.000000 Be
0.000000 0.000000 0.500000 Fe
0.000000 0.500000 0.000000 Fe
0.500000 0.000000 0.000000 Fe
0.500000 0.500000 0.500000 Fe
0.250000 0.750000 0.750000 Rh
0.250000 0.750000 0.250000 Rh
0.250000 0.250000 0.250000 Rh
0.250000 0.250000 0.750000 Rh
0.750000 0.750000 0.250000 Rh
0.750000 0.750000 0.750000 Rh
0.750000 0.250000 0.750000 Rh
0.750000 0.250000 0.250000 Rh
