Fe4 C1
1.0
  3.803132  0.000000  0.000000
  0.000000  3.803132  0.000000
  0.000000  0.000000  3.919546
Fe C
4 1
direct
0.269231 0.269231 0.269231 Fe
0.730769 0.269231 0.730769 Fe
0.730769 0.730769 0.269231 Fe
0.269231 0.730769 0.730769 Fe
0.000000 0.000000 0.000000 C
