Nb4 Ga4 Ni8
1.0
  5.931012  0.000000  0.000000
  0.000000  5.931012  0.000000
  0.000000  0.000000  6.112561
Nb Ga Ni
4 4 8
direct
0.500000 0.000000 0.000000 Nb
0.500000 0.500000 0.500000 Nb
0.000000 0.000000 0.500000 Nb
0.000000 0.500000 0.000000 Nb
0.000000 0.000000 0.000000 Ga
0.000000 0.500000 0.500000 Ga
0.500000 0.000000 0.500000 Ga
0.500000 0.500000 0.000000 Ga
0.750000 0.250000 0.250000 Ni
0.250000 0.750000 0.750000 Ni
0.750000 0.750000 0.750000 Ni
0.250000 0.250000 0.250000 Ni
0.250000 0.250000 0.750000 Ni
0.750000 0.750000 0.250000 Ni
0.250000 0.750000 0.250000 Ni
0.750000 0.250000 0.750000 Ni
