Co8 Sb24
1.0
  9.024073  0.000000  0.000000
  0.000000  9.024073  0.000000
  0.000000  0.000000  9.300301
Co Sb
8 24
direct
0.750000 0.750000 0.750000 Co
0.750000 0.250000 0.750000 Co
0.750000 0.750000 0.250000 Co
0.250000 0.750000 0.750000 Co
0.250000 0.250000 0.250000 Co
0.250000 0.750000 0.250000 Co
0.250000 0.250000 0.750000 Co
0.750000 0.250000 0.250000 Co
0.000000 0.333342 0.159520 Sb
0.666658 0.159520 0.000000 Sb
0.840480 0.000000 0.333342 Sb
0.666658 0.840480 0.000000 Sb
0.159520 0.000000 0.666658 Sb
0.333342 0.840480 0.000000 Sb
0.840480 0.000000 0.666658 Sb
0.159520 0.000000 0.333342 Sb
0.333342 0.159520 0.000000 Sb
0.000000 0.666658 0.159520 Sb
0.000000 0.333342 0.840480 Sb
0.000000 0.666658 0.840480 Sb
0.500000 0.833342 0.659520 Sb
0.166658 0.659520 0.500000 Sb
0.340480 0.500000 0.833342 Sb
0.166658 0.340480 0.500000 Sb
0.659520 0.500000 0.166658 Sb
0.833342 0.340480 0.500000 Sb
0.340480 0.500000 0.166658 Sb
0.659520 0.500000 0.833342 Sb
0.833342 0.659520 0.500000 Sb
0.500000 0.166658 0.659520 Sb
0.500000 0.833342 0.340480 Sb
0.500000 0.166658 0.340480 Sb
