Fe4 S8
1.0
  5.349773  0.000000  0.000000
  0.000000  5.349773  0.000000
  0.000000  0.000000  5.513530
Fe S
4 8
direct
0.000000 0.500000 0.500000 Fe
0.500000 0.500000 0.000000 Fe
0.500000 0.000000 0.500000 Fe
0.000000 0.000000 0.000000 Fe
0.382888 0.117112 0.882888 S
0.117112 0.882888 0.382888 S
0.882888 0.382888 0.117112 S
0.617112 0.617112 0.617112 S
0.382888 0.382888 0.382888 S
0.117112 0.617112 0.882888 S
0.882888 0.117112 0.617112 S
0.617112 0.882888 0.117112 S
