Zr4 Ni4 Bi4
1.0
  6.228971  0.000000  0.000000
  0.000000  6.228971  0.000000
  0.000000  0.000000  6.419641
Zr Ni Bi
4 4 4
direct
0.000000 0.000000 0.000000 Zr
0.000000 0.500000 0.500000 Zr
0.500000 0.000000 0.500000 Zr
0.500000 0.500000 0.000000 Zr
0.250000 0.750000 0.750000 Ni
0.250000 0.250000 0.250000 Ni
0.750000 0.750000 0.250000 Ni
0.750000 0.250000 0.750000 Ni
0.500000 0.000000 0.000000 Bi
0.500000 0.500000 0.500000 Bi
0.000000 0.000000 0.500000 Bi
0.000000 0.500000 0.000000 Bi
