Mn4 Cr4 Re4
1.0
  5.681123  0.000000  0.000000
  0.000000  5.681123  0.000000
  0.000000  0.000000  5.855023
Mn Cr Re
4 4 4
direct
0.000000 0.000000 0.500000 Mn
0.000000 0.500000 0.000000 Mn
0.500000 0.000000 0.000000 Mn
0.500000 0.500000 0.500000 Mn
0.000000 0.000000 0.000000 Cr
0.000000 0.500000 0.500000 Cr
0.500000 0.000000 0.500000 Cr
0.500000 0.500000 0.000000 Cr
0.750000 0.250000 0.250000 Re
0.750000 0.750000 0.750000 Re
0.250000 0.250000 0.750000 Re
0.250000 0.750000 0.250000 Re
