Fe3 Pd1 N1
1.0
  3.827565  0.000000  0.000000
  0.000000  3.827565  0.000000
  0.000000  0.000000  3.944727
Fe Pd N
3 1 1
direct
0.500000 0.000000 0.500000 Fe
0.000000 0.500000 0.500000 Fe
0.500000 0.500000 0.000000 Fe
0.000000 0.000000 0.000000 Pd
0.500000 0.500000 0.500000 N
