Zr4 Ga4 Ni8
1.0
  6.060139  0.000000  0.000000
  0.000000  6.060139  0.000000
  0.000000  0.000000  6.245641
Zr Ga Ni
4 4 8
direct
0.500000 0.000000 0.000000 Zr
0.500000 0.500000 0.500000 Zr
0.000000 0.000000 0.500000 Zr
0.000000 0.500000 0.000000 Zr
0.000000 0.000000 0.000000 Ga
0.000000 0.500000 0.500000 Ga
0.500000 0.000000 0.500000 Ga
0.500000 0.500000 0.000000 Ga
0.250000 0.750000 0.750000 Ni
0.750000 0.750000 0.750000 Ni
0.250000 0.250000 0.250000 Ni
0.750000 0.250000 0.250000 Ni
0.750000 0.750000 0.250000 Ni
0.250000 0.750000 0.250000 Ni
0.750000 0.250000 0.750000 Ni
0.250000 0.250000 0.750000 Ni
