Al8 Fe4 Ir4
1.0
  5.861626  0.000000  0.000000
  0.000000  5.861626  0.000000
  0.000000  0.000000  6.041051
Al Fe Ir
8 4 4
direct
0.250000 0.250000 0.250000 Al
0.250000 0.250000 0.750000 Al
0.250000 0.750000 0.750000 Al
0.250000 0.750000 0.250000 Al
0.750000 0.250000 0.750000 Al
0.750000 0.250000 0.250000 Al
0.750000 0.750000 0.250000 Al
0.750000 0.750000 0.750000 Al
0.500000 0.000000 0.500000 Fe
0.500000 0.500000 0.000000 Fe
0.000000 0.000000 0.000000 Fe
0.000000 0.500000 0.500000 Fe
0.000000 0.500000 0.000000 Ir
0.000000 0.000000 0.500000 Ir
0.500000 0.500000 0.500000 Ir
0.500000 0.000000 0.000000 Ir
