Ta4 Co4 Sn8
1.0
  6.656768  0.000000  0.000000
  0.000000  6.656768  0.000000
  0.000000  0.000000  6.860533
Ta Co Sn
4 4 8
direct
0.750000 0.250000 0.250000 Ta
0.750000 0.750000 0.750000 Ta
0.250000 0.250000 0.750000 Ta
0.250000 0.750000 0.250000 Ta
0.500000 0.000000 0.000000 Co
0.500000 0.500000 0.500000 Co
0.000000 0.000000 0.500000 Co
0.000000 0.500000 0.000000 Co
0.000000 0.000000 0.000000 Sn
0.250000 0.750000 0.750000 Sn
0.000000 0.500000 0.500000 Sn
0.250000 0.250000 0.250000 Sn
0.500000 0.000000 0.500000 Sn
0.750000 0.750000 0.250000 Sn
0.500000 0.500000 0.000000 Sn
0.750000 0.250000 0.750000 Sn
