Mn4 Al4 Os8
1.0
  5.942215  0.000000  0.000000
  0.000000  5.942215  0.000000
  0.000000  0.000000  6.124107
Mn Al Os
4 4 8
direct
0.000000 0.000000 0.500000 Mn
0.000000 0.500000 0.000000 Mn
0.500000 0.000000 0.000000 Mn
0.500000 0.500000 0.500000 Mn
0.000000 0.000000 0.000000 Al
0.000000 0.500000 0.500000 Al
0.500000 0.000000 0.500000 Al
0.500000 0.500000 0.000000 Al
0.250000 0.750000 0.750000 Os
0.250000 0.750000 0.250000 Os
0.250000 0.250000 0.250000 Os
0.250000 0.250000 0.750000 Os
0.750000 0.750000 0.250000 Os
0.750000 0.750000 0.750000 Os
0.750000 0.250000 0.750000 Os
0.750000 0.250000 0.250000 Os
