Fe8 Re12
1.0
  6.348506  0.000000  0.000000
  0.000000  6.348506  0.000000
  0.000000  0.000000  6.542834
Fe Re
8 12
direct
0.189407 0.810593 0.310593 Fe
0.310593 0.189407 0.810593 Fe
0.810593 0.310593 0.189407 Fe
0.689407 0.689407 0.689407 Fe
0.560593 0.439407 0.939407 Fe
0.439407 0.939407 0.560593 Fe
0.939407 0.560593 0.439407 Fe
0.060593 0.060593 0.060593 Fe
0.801392 0.948608 0.375000 Re
0.698608 0.051392 0.875000 Re
0.198608 0.448608 0.125000 Re
0.301392 0.551392 0.625000 Re
0.948608 0.375000 0.801392 Re
0.051392 0.875000 0.698608 Re
0.448608 0.125000 0.198608 Re
0.551392 0.625000 0.301392 Re
0.375000 0.801392 0.948608 Re
0.875000 0.698608 0.051392 Re
0.125000 0.198608 0.448608 Re
0.625000 0.301392 0.551392 Re
