Li4 Al8 Ni4
1.0
  5.816346  0.000000  0.000000
  0.000000  5.816346  0.000000
  0.000000  0.000000  5.994385
Li Al Ni
4 8 4
direct
0.000000 0.500000 0.500000 Li
0.000000 0.000000 0.000000 Li
0.500000 0.500000 0.000000 Li
0.500000 0.000000 0.500000 Li
0.250000 0.250000 0.750000 Al
0.250000 0.250000 0.250000 Al
0.250000 0.750000 0.250000 Al
0.250000 0.750000 0.750000 Al
0.750000 0.250000 0.250000 Al
0.750000 0.250000 0.750000 Al
0.750000 0.750000 0.750000 Al
0.750000 0.750000 0.250000 Al
0.500000 0.000000 0.000000 Ni
0.500000 0.500000 0.500000 Ni
0.000000 0.000000 0.500000 Ni
0.000000 0.500000 0.000000 Ni
