Cr21 W2 C6
1.0
  7.457718  0.000000  0.000000
 -3.765466  6.460697  0.000000
 -3.765329 -2.175289  6.278183
Cr W C
21 2 6
direct
0.000008 0.338138 0.000052 Cr
0.661764 0.000160 0.000115 Cr
0.769831 0.154816 0.384838 Cr
0.662280 0.662110 0.662009 Cr
0.229992 0.614942 0.384826 Cr
0.662146 0.662034 0.999923 Cr
0.337780 0.999887 0.999846 Cr
0.999994 0.000137 0.338266 Cr
0.337684 0.337560 0.999931 Cr
0.337914 0.999987 0.337704 Cr
0.000031 0.662035 0.999768 Cr
0.999975 0.999836 0.662134 Cr
0.229883 0.384791 0.614964 Cr
0.000138 0.999914 0.999645 Cr
0.338090 0.338178 0.338112 Cr
0.770049 0.385091 0.615115 Cr
0.769954 0.615065 0.385129 Cr
0.769790 0.384730 0.154831 Cr
0.662366 0.999969 0.662164 Cr
0.229997 0.615171 0.845247 Cr
0.230063 0.845242 0.615283 Cr
0.500194 0.250035 0.750278 W
0.500139 0.750282 0.249938 W
0.000089 0.726044 0.726037 C
0.999955 0.274105 0.274120 C
0.999944 0.725719 0.274159 C
0.451644 0.725815 0.725759 C
0.999932 0.274100 0.725746 C
0.548376 0.274107 0.274063 C
