Co1 Pt3
1.0
  3.850873  0.000000  0.000000
  0.000000  3.850873  0.000000
  0.000000  0.000000  3.968749
Co Pt
1 3
direct
0.000000 0.000000 0.000000 Co
0.000000 0.500000 0.500000 Pt
0.500000 0.500000 0.000000 Pt
0.500000 0.000000 0.500000 Pt
