Mn4 N4
1.0
  4.096012  0.000000  0.000000
  0.000000  4.096012  0.000000
  0.000000  0.000000  4.221392
Mn N
4 4
direct
0.000000 0.000000 0.000000 Mn
0.000000 0.500000 0.500000 Mn
0.500000 0.000000 0.500000 Mn
0.500000 0.500000 0.000000 Mn
0.500000 0.000000 0.000000 N
0.500000 0.500000 0.500000 N
0.000000 0.000000 0.500000 N
0.000000 0.500000 0.000000 N
