Mn3 Ag1 N1
1.0
  3.963559  0.000000  0.000000
  0.000000  3.963559  0.000000
  0.000000  0.000000  4.084884
Mn Ag N
3 1 1
direct
0.000000 0.500000 0.500000 Mn
0.500000 0.500000 0.000000 Mn
0.500000 0.000000 0.500000 Mn
0.000000 0.000000 0.000000 Ag
0.500000 0.500000 0.500000 N
