Cr4 H4
1.0
  3.741245  0.000000  0.000000
  0.000000  3.741245  0.000000
  0.000000  0.000000  3.855765
Cr H
4 4
direct
0.000000 0.000000 0.000000 Cr
0.000000 0.500000 0.500000 Cr
0.500000 0.000000 0.500000 Cr
0.500000 0.500000 0.000000 Cr
0.500000 0.000000 0.000000 H
0.500000 0.500000 0.500000 H
0.000000 0.000000 0.500000 H
0.000000 0.500000 0.000000 H
