Mn4 Ni8 Sn4
1.0
  5.989016  0.000000  0.000000
  0.000000  5.989016  0.000000
  0.000000  0.000000  6.172341
Mn Ni Sn
4 8 4
direct
0.000000 0.000000 0.000000 Mn
0.000000 0.500000 0.500000 Mn
0.500000 0.000000 0.500000 Mn
0.500000 0.500000 0.000000 Mn
0.250000 0.750000 0.750000 Ni
0.750000 0.250000 0.250000 Ni
0.250000 0.250000 0.250000 Ni
0.750000 0.750000 0.750000 Ni
0.750000 0.750000 0.250000 Ni
0.250000 0.250000 0.750000 Ni
0.750000 0.250000 0.750000 Ni
0.250000 0.750000 0.250000 Ni
0.000000 0.500000 0.000000 Sn
0.000000 0.000000 0.500000 Sn
0.500000 0.500000 0.500000 Sn
0.500000 0.000000 0.000000 Sn
