Sc8 Co16
1.0
  6.831695  0.000000  0.000000
  0.000000  6.831695  0.000000
  0.000000  0.000000  7.040814
Sc Co
8 16
direct
0.750000 0.250000 0.750000 Sc
0.000000 0.000000 0.000000 Sc
0.750000 0.750000 0.250000 Sc
0.000000 0.500000 0.500000 Sc
0.250000 0.250000 0.250000 Sc
0.500000 0.000000 0.500000 Sc
0.250000 0.750000 0.750000 Sc
0.500000 0.500000 0.000000 Sc
0.375000 0.875000 0.125000 Co
0.125000 0.875000 0.375000 Co
0.625000 0.125000 0.125000 Co
0.875000 0.125000 0.375000 Co
0.375000 0.375000 0.625000 Co
0.125000 0.375000 0.875000 Co
0.625000 0.625000 0.625000 Co
0.875000 0.625000 0.875000 Co
0.875000 0.875000 0.625000 Co
0.625000 0.875000 0.875000 Co
0.125000 0.125000 0.625000 Co
0.375000 0.125000 0.875000 Co
0.875000 0.375000 0.125000 Co
0.625000 0.375000 0.375000 Co
0.125000 0.625000 0.125000 Co
0.375000 0.625000 0.375000 Co
