Ti3 Zn3 Co6
1.0
  2.036061 -3.562183  0.000000
  2.056627  3.526561  0.000000
  0.000000  0.000000 10.284776
Ti Zn Co
3 3 6
direct
0.000000 0.000000 0.000000 Ti
0.666667 0.333333 0.333333 Ti
0.333333 0.666667 0.666667 Ti
0.000000 0.000000 0.500000 Zn
0.666667 0.333333 0.833333 Zn
0.333333 0.666667 0.166667 Zn
0.000000 0.000000 0.750039 Co
0.666667 0.333333 0.083372 Co
0.333333 0.666667 0.416706 Co
0.000000 0.000000 0.249961 Co
0.666667 0.333333 0.583294 Co
0.333333 0.666667 0.916628 Co
