Hf8 Co16
1.0
  6.811115  0.000000  0.000000
  0.000000  6.811115  0.000000
  0.000000  0.000000  7.019604
Hf Co
8 16
direct
0.875000 0.375000 0.875000 Hf
0.625000 0.125000 0.125000 Hf
0.875000 0.875000 0.375000 Hf
0.625000 0.625000 0.625000 Hf
0.375000 0.375000 0.375000 Hf
0.125000 0.125000 0.625000 Hf
0.375000 0.875000 0.875000 Hf
0.125000 0.625000 0.125000 Hf
0.250000 0.250000 0.000000 Co
0.000000 0.500000 0.500000 Co
0.250000 0.500000 0.750000 Co
0.000000 0.250000 0.250000 Co
0.250000 0.750000 0.500000 Co
0.000000 0.000000 0.000000 Co
0.250000 0.000000 0.250000 Co
0.000000 0.750000 0.750000 Co
0.750000 0.250000 0.500000 Co
0.500000 0.500000 0.000000 Co
0.750000 0.500000 0.250000 Co
0.500000 0.250000 0.750000 Co
0.750000 0.750000 0.000000 Co
0.500000 0.000000 0.500000 Co
0.750000 0.000000 0.750000 Co
0.500000 0.750000 0.250000 Co
