Ga1 Co1
1.0
  2.858335  0.000000  0.000000
  0.000000  2.858335  0.000000
  0.000000  0.000000  2.945829
Ga Co
1 1
direct
0.500000 0.500000 0.500000 Ga
0.000000 0.000000 0.000000 Co
