Mn4 In4 Rh8
1.0
  6.238793  0.000000  0.000000
  0.000000  6.238793  0.000000
  0.000000  0.000000  6.429763
Mn In Rh
4 4 8
direct
0.000000 0.000000 0.000000 Mn
0.000000 0.500000 0.500000 Mn
0.500000 0.000000 0.500000 Mn
0.500000 0.500000 0.000000 Mn
0.500000 0.500000 0.500000 In
0.500000 0.000000 0.000000 In
0.000000 0.500000 0.000000 In
0.000000 0.000000 0.500000 In
0.750000 0.750000 0.750000 Rh
0.250000 0.750000 0.750000 Rh
0.750000 0.250000 0.250000 Rh
0.250000 0.250000 0.250000 Rh
0.250000 0.750000 0.250000 Rh
0.750000 0.750000 0.250000 Rh
0.250000 0.250000 0.750000 Rh
0.750000 0.250000 0.750000 Rh
