Mn4 Si4 Rh8
1.0
  5.943272  0.000000  0.000000
  0.000000  5.943272  0.000000
  0.000000  0.000000  6.125196
Mn Si Rh
4 4 8
direct
0.000000 0.000000 0.000000 Mn
0.000000 0.500000 0.500000 Mn
0.500000 0.000000 0.500000 Mn
0.500000 0.500000 0.000000 Mn
0.500000 0.500000 0.500000 Si
0.500000 0.000000 0.000000 Si
0.000000 0.500000 0.000000 Si
0.000000 0.000000 0.500000 Si
0.750000 0.250000 0.250000 Rh
0.250000 0.250000 0.250000 Rh
0.750000 0.750000 0.750000 Rh
0.250000 0.750000 0.750000 Rh
0.250000 0.250000 0.750000 Rh
0.750000 0.250000 0.750000 Rh
0.250000 0.750000 0.250000 Rh
0.750000 0.750000 0.250000 Rh
