Cr4 Si4
1.0
  4.553531  0.000000  0.000000
  0.000000  4.553531  0.000000
  0.000000  0.000000  4.692915
Cr Si
4 4
direct
0.862109 0.637891 0.362109 Cr
0.637891 0.362109 0.862109 Cr
0.362109 0.862109 0.637891 Cr
0.137891 0.137891 0.137891 Cr
0.152815 0.347185 0.652815 Si
0.347185 0.652815 0.152815 Si
0.652815 0.152815 0.347185 Si
0.847185 0.847185 0.847185 Si
