Mn4 Zn4 Ir8
1.0
  5.984804  0.000000  0.000000
  0.000000  5.984804  0.000000
  0.000000  0.000000  6.168000
Mn Zn Ir
4 4 8
direct
0.000000 0.500000 0.500000 Mn
0.000000 0.000000 0.000000 Mn
0.500000 0.500000 0.000000 Mn
0.500000 0.000000 0.500000 Mn
0.000000 0.500000 0.000000 Zn
0.000000 0.000000 0.500000 Zn
0.500000 0.500000 0.500000 Zn
0.500000 0.000000 0.000000 Zn
0.250000 0.250000 0.250000 Ir
0.250000 0.250000 0.750000 Ir
0.250000 0.750000 0.750000 Ir
0.250000 0.750000 0.250000 Ir
0.750000 0.250000 0.750000 Ir
0.750000 0.250000 0.250000 Ir
0.750000 0.750000 0.250000 Ir
0.750000 0.750000 0.750000 Ir
