Ni12 Sb4
1.0
  5.859313  0.000000  0.000000
  0.000000  5.859313  0.000000
  0.000000  0.000000  6.038667
Ni Sb
12 4
direct
0.500000 0.000000 0.000000 Ni
0.750000 0.250000 0.250000 Ni
0.750000 0.250000 0.750000 Ni
0.500000 0.500000 0.500000 Ni
0.750000 0.750000 0.750000 Ni
0.750000 0.750000 0.250000 Ni
0.000000 0.000000 0.500000 Ni
0.250000 0.250000 0.750000 Ni
0.250000 0.250000 0.250000 Ni
0.000000 0.500000 0.000000 Ni
0.250000 0.750000 0.250000 Ni
0.250000 0.750000 0.750000 Ni
0.000000 0.000000 0.000000 Sb
0.000000 0.500000 0.500000 Sb
0.500000 0.000000 0.500000 Sb
0.500000 0.500000 0.000000 Sb
