Zr4 Fe4 Sb4
1.0
  6.118430  0.000000  0.000000
  0.000000  6.118430  0.000000
  0.000000  0.000000  6.305716
Zr Fe Sb
4 4 4
direct
0.500000 0.500000 0.500000 Zr
0.500000 0.000000 0.000000 Zr
0.000000 0.500000 0.000000 Zr
0.000000 0.000000 0.500000 Zr
0.750000 0.250000 0.250000 Fe
0.750000 0.750000 0.750000 Fe
0.250000 0.250000 0.750000 Fe
0.250000 0.750000 0.250000 Fe
0.000000 0.000000 0.000000 Sb
0.000000 0.500000 0.500000 Sb
0.500000 0.000000 0.500000 Sb
0.500000 0.500000 0.000000 Sb
