Hf4 Zn4 Ni8
1.0
  6.004527  0.000000  0.000000
  0.000000  6.004527  0.000000
  0.000000  0.000000  6.188327
Hf Zn Ni
4 4 8
direct
0.000000 0.000000 0.500000 Hf
0.000000 0.500000 0.000000 Hf
0.500000 0.000000 0.000000 Hf
0.500000 0.500000 0.500000 Hf
0.000000 0.000000 0.000000 Zn
0.000000 0.500000 0.500000 Zn
0.500000 0.000000 0.500000 Zn
0.500000 0.500000 0.000000 Zn
0.750000 0.250000 0.250000 Ni
0.750000 0.250000 0.750000 Ni
0.750000 0.750000 0.750000 Ni
0.750000 0.750000 0.250000 Ni
0.250000 0.250000 0.750000 Ni
0.250000 0.250000 0.250000 Ni
0.250000 0.750000 0.250000 Ni
0.250000 0.750000 0.750000 Ni
