Co8 N24
1.0
  6.194993  0.000000  0.000000
  0.000000  6.194993  0.000000
  0.000000  0.000000  6.384623
Co N
8 24
direct
0.250000 0.750000 0.750000 Co
0.750000 0.750000 0.250000 Co
0.750000 0.250000 0.750000 Co
0.750000 0.750000 0.750000 Co
0.750000 0.250000 0.250000 Co
0.250000 0.250000 0.750000 Co
0.250000 0.750000 0.250000 Co
0.250000 0.250000 0.250000 Co
0.000000 0.625021 0.884031 N
0.000000 0.374979 0.884031 N
0.000000 0.625021 0.115969 N
0.374979 0.115969 0.000000 N
0.000000 0.374979 0.115969 N
0.625021 0.115969 0.000000 N
0.884031 0.000000 0.374979 N
0.625021 0.884031 0.000000 N
0.115969 0.000000 0.625021 N
0.374979 0.884031 0.000000 N
0.884031 0.000000 0.625021 N
0.115969 0.000000 0.374979 N
0.500000 0.125021 0.384031 N
0.500000 0.874979 0.384031 N
0.500000 0.125021 0.615969 N
0.874979 0.615969 0.500000 N
0.500000 0.874979 0.615969 N
0.125021 0.615969 0.500000 N
0.384031 0.500000 0.874979 N
0.125021 0.384031 0.500000 N
0.615969 0.500000 0.125021 N
0.874979 0.384031 0.500000 N
0.384031 0.500000 0.125021 N
0.615969 0.500000 0.874979 N
