Sr4 Cr4 Rh8
1.0
  6.589672  0.000000  0.000000
  0.000000  6.589672  0.000000
  0.000000  0.000000  6.791383
Sr Cr Rh
4 4 8
direct
0.000000 0.000000 0.500000 Sr
0.000000 0.500000 0.000000 Sr
0.500000 0.000000 0.000000 Sr
0.500000 0.500000 0.500000 Sr
0.000000 0.000000 0.000000 Cr
0.000000 0.500000 0.500000 Cr
0.500000 0.000000 0.500000 Cr
0.500000 0.500000 0.000000 Cr
0.750000 0.250000 0.750000 Rh
0.750000 0.250000 0.250000 Rh
0.750000 0.750000 0.250000 Rh
0.750000 0.750000 0.750000 Rh
0.250000 0.250000 0.250000 Rh
0.250000 0.250000 0.750000 Rh
0.250000 0.750000 0.750000 Rh
0.250000 0.750000 0.250000 Rh
