Ti8 Mn4 Ni4
1.0
  5.897518  0.000000  0.000000
  0.000000  5.897518  0.000000
  0.000000  0.000000  6.078042
Ti Mn Ni
8 4 4
direct
0.250000 0.250000 0.250000 Ti
0.250000 0.250000 0.750000 Ti
0.250000 0.750000 0.750000 Ti
0.250000 0.750000 0.250000 Ti
0.750000 0.250000 0.750000 Ti
0.750000 0.250000 0.250000 Ti
0.750000 0.750000 0.250000 Ti
0.750000 0.750000 0.750000 Ti
0.000000 0.500000 0.500000 Mn
0.000000 0.000000 0.000000 Mn
0.500000 0.500000 0.000000 Mn
0.500000 0.000000 0.500000 Mn
0.000000 0.500000 0.000000 Ni
0.000000 0.000000 0.500000 Ni
0.500000 0.500000 0.500000 Ni
0.500000 0.000000 0.000000 Ni
