Sr4 Mn4 Re8
1.0
  6.383697  0.000000  0.000000
  0.000000  6.383697  0.000000
  0.000000  0.000000  6.579103
Sr Mn Re
4 4 8
direct
0.750000 0.750000 0.250000 Sr
0.750000 0.250000 0.750000 Sr
0.250000 0.750000 0.750000 Sr
0.250000 0.250000 0.250000 Sr
0.500000 0.000000 0.000000 Mn
0.500000 0.500000 0.500000 Mn
0.000000 0.000000 0.500000 Mn
0.000000 0.500000 0.000000 Mn
0.000000 0.000000 0.000000 Re
0.250000 0.250000 0.750000 Re
0.000000 0.500000 0.500000 Re
0.250000 0.750000 0.250000 Re
0.500000 0.000000 0.500000 Re
0.750000 0.250000 0.250000 Re
0.500000 0.500000 0.000000 Re
0.750000 0.750000 0.750000 Re
