In1 Ni3
1.0
  3.692318  0.000000  0.000000
  0.000000  3.692318  0.000000
  0.000000  0.000000  3.805340
In Ni
1 3
direct
0.000000 0.000000 0.000000 In
0.500000 0.000000 0.500000 Ni
0.000000 0.500000 0.500000 Ni
0.500000 0.500000 0.000000 Ni
