Sc4 Ni4 P4
1.0
  5.617330  0.000000  0.000000
  0.000000  5.617330  0.000000
  0.000000  0.000000  5.789278
Sc Ni P
4 4 4
direct
0.000000 0.000000 0.500000 Sc
0.000000 0.500000 0.000000 Sc
0.500000 0.000000 0.000000 Sc
0.500000 0.500000 0.500000 Sc
0.250000 0.250000 0.250000 Ni
0.250000 0.750000 0.750000 Ni
0.750000 0.250000 0.750000 Ni
0.750000 0.750000 0.250000 Ni
0.000000 0.000000 0.000000 P
0.000000 0.500000 0.500000 P
0.500000 0.000000 0.500000 P
0.500000 0.500000 0.000000 P
