Nb8 Co16
1.0
  6.675293  0.000000  0.000000
  0.000000  6.675293  0.000000
  0.000000  0.000000  6.879625
Nb Co
8 16
direct
0.375000 0.375000 0.375000 Nb
0.125000 0.125000 0.625000 Nb
0.375000 0.875000 0.875000 Nb
0.125000 0.625000 0.125000 Nb
0.875000 0.375000 0.875000 Nb
0.625000 0.125000 0.125000 Nb
0.875000 0.875000 0.375000 Nb
0.625000 0.625000 0.625000 Nb
0.250000 0.250000 0.000000 Co
0.500000 0.500000 0.000000 Co
0.250000 0.500000 0.750000 Co
0.000000 0.250000 0.250000 Co
0.250000 0.750000 0.500000 Co
0.500000 0.000000 0.500000 Co
0.250000 0.000000 0.250000 Co
0.000000 0.750000 0.750000 Co
0.750000 0.250000 0.500000 Co
0.000000 0.500000 0.500000 Co
0.750000 0.500000 0.250000 Co
0.500000 0.250000 0.750000 Co
0.750000 0.750000 0.000000 Co
0.000000 0.000000 0.000000 Co
0.750000 0.000000 0.750000 Co
0.500000 0.750000 0.250000 Co
