Ti1 Co3
1.0
  3.571099  0.000000  0.000000
  0.000000  3.571099  0.000000
  0.000000  0.000000  3.680411
Ti Co
1 3
direct
0.000000 0.000000 0.000000 Ti
0.500000 0.500000 0.000000 Co
0.500000 0.000000 0.500000 Co
0.000000 0.500000 0.500000 Co
