Mn3 Sn1 C1
1.0
  3.854528  0.000000  0.000000
  0.000000  3.854528  0.000000
  0.000000  0.000000  3.972516
Mn Sn C
3 1 1
direct
0.000000 0.500000 0.500000 Mn
0.500000 0.500000 0.000000 Mn
0.500000 0.000000 0.500000 Mn
0.000000 0.000000 0.000000 Sn
0.500000 0.500000 0.500000 C
