Hf4 Fe8 Sn4
1.0
  6.151136  0.000000  0.000000
  0.000000  6.151136  0.000000
  0.000000  0.000000  6.339424
Hf Fe Sn
4 8 4
direct
0.000000 0.000000 0.500000 Hf
0.000000 0.500000 0.000000 Hf
0.500000 0.000000 0.000000 Hf
0.500000 0.500000 0.500000 Hf
0.250000 0.750000 0.750000 Fe
0.750000 0.750000 0.750000 Fe
0.250000 0.250000 0.250000 Fe
0.750000 0.250000 0.250000 Fe
0.750000 0.750000 0.250000 Fe
0.250000 0.750000 0.250000 Fe
0.750000 0.250000 0.750000 Fe
0.250000 0.250000 0.750000 Fe
0.500000 0.500000 0.000000 Sn
0.500000 0.000000 0.500000 Sn
0.000000 0.500000 0.500000 Sn
0.000000 0.000000 0.000000 Sn
