Cu4 Ni8 Sb4
1.0
  5.917901  0.000000  0.000000
  0.000000  5.917901  0.000000
  0.000000  0.000000  6.099049
Cu Ni Sb
4 8 4
direct
0.000000 0.000000 0.000000 Cu
0.000000 0.500000 0.500000 Cu
0.500000 0.000000 0.500000 Cu
0.500000 0.500000 0.000000 Cu
0.750000 0.250000 0.750000 Ni
0.750000 0.250000 0.250000 Ni
0.750000 0.750000 0.250000 Ni
0.750000 0.750000 0.750000 Ni
0.250000 0.250000 0.250000 Ni
0.250000 0.250000 0.750000 Ni
0.250000 0.750000 0.750000 Ni
0.250000 0.750000 0.250000 Ni
0.000000 0.000000 0.500000 Sb
0.000000 0.500000 0.000000 Sb
0.500000 0.000000 0.000000 Sb
0.500000 0.500000 0.500000 Sb
