Ti1 Ni1
1.0
  2.963303  0.000000  0.000000
  0.000000  2.963303  0.000000
  0.000000  0.000000  3.054010
Ti Ni
1 1
direct
0.000000 0.000000 0.000000 Ti
0.500000 0.500000 0.500000 Ni
