Fe4 Cu8 Sn4
1.0
  6.082705  0.000000  0.000000
  0.000000  6.082705  0.000000
  0.000000  0.000000  6.268897
Fe Cu Sn
4 8 4
direct
0.000000 0.000000 0.500000 Fe
0.000000 0.500000 0.000000 Fe
0.500000 0.000000 0.000000 Fe
0.500000 0.500000 0.500000 Fe
0.250000 0.750000 0.750000 Cu
0.750000 0.250000 0.250000 Cu
0.250000 0.250000 0.250000 Cu
0.750000 0.750000 0.750000 Cu
0.750000 0.750000 0.250000 Cu
0.250000 0.250000 0.750000 Cu
0.750000 0.250000 0.750000 Cu
0.250000 0.750000 0.250000 Cu
0.000000 0.000000 0.000000 Sn
0.000000 0.500000 0.500000 Sn
0.500000 0.000000 0.500000 Sn
0.500000 0.500000 0.000000 Sn
