Mn3 Pt1 N1
1.0
  3.905535  0.000000  0.000000
  0.000000  3.905535  0.000000
  0.000000  0.000000  4.025084
Mn Pt N
3 1 1
direct
0.000000 0.500000 0.500000 Mn
0.500000 0.500000 0.000000 Mn
0.500000 0.000000 0.500000 Mn
0.000000 0.000000 0.000000 Pt
0.500000 0.500000 0.500000 N
