Ni8 W12 N4
1.0
  6.613066  0.000000  0.000000
  0.000000  6.613066  0.000000
  0.000000  0.000000  6.815493
Ni W N
8 12 4
direct
0.066207 0.066207 0.066207 Ni
0.316207 0.183793 0.816207 Ni
0.816207 0.316207 0.183793 Ni
0.183793 0.816207 0.316207 Ni
0.433793 0.933793 0.566207 Ni
0.566207 0.433793 0.933793 Ni
0.933793 0.566207 0.433793 Ni
0.683793 0.683793 0.683793 Ni
0.200362 0.450362 0.125000 W
0.450362 0.125000 0.200362 W
0.950362 0.375000 0.799638 W
0.875000 0.700362 0.049638 W
0.125000 0.200362 0.450362 W
0.799638 0.950362 0.375000 W
0.700362 0.049638 0.875000 W
0.049638 0.875000 0.700362 W
0.625000 0.299638 0.549638 W
0.549638 0.625000 0.299638 W
0.375000 0.799638 0.950362 W
0.299638 0.549638 0.625000 W
0.375000 0.375000 0.375000 N
0.625000 0.875000 0.125000 N
0.125000 0.625000 0.875000 N
0.875000 0.125000 0.625000 N
