Ta4 Al4 Fe8
1.0
  5.859788  0.000000  0.000000
  0.000000  5.859788  0.000000
  0.000000  0.000000  6.039157
Ta Al Fe
4 4 8
direct
0.000000 0.500000 0.000000 Ta
0.000000 0.000000 0.500000 Ta
0.500000 0.500000 0.500000 Ta
0.500000 0.000000 0.000000 Ta
0.000000 0.500000 0.500000 Al
0.000000 0.000000 0.000000 Al
0.500000 0.500000 0.000000 Al
0.500000 0.000000 0.500000 Al
0.250000 0.250000 0.250000 Fe
0.250000 0.250000 0.750000 Fe
0.250000 0.750000 0.750000 Fe
0.250000 0.750000 0.250000 Fe
0.750000 0.250000 0.750000 Fe
0.750000 0.250000 0.250000 Fe
0.750000 0.750000 0.250000 Fe
0.750000 0.750000 0.750000 Fe
