Be8 Ni4 Rh4
1.0
  5.347282  0.000000  0.000000
  0.000000  5.347282  0.000000
  0.000000  0.000000  5.510963
Be Ni Rh
8 4 4
direct
0.750000 0.250000 0.750000 Be
0.750000 0.250000 0.250000 Be
0.750000 0.750000 0.250000 Be
0.750000 0.750000 0.750000 Be
0.250000 0.250000 0.250000 Be
0.250000 0.250000 0.750000 Be
0.250000 0.750000 0.750000 Be
0.250000 0.750000 0.250000 Be
0.000000 0.000000 0.500000 Ni
0.000000 0.500000 0.000000 Ni
0.500000 0.000000 0.000000 Ni
0.500000 0.500000 0.500000 Ni
0.500000 0.500000 0.000000 Rh
0.500000 0.000000 0.500000 Rh
0.000000 0.500000 0.500000 Rh
0.000000 0.000000 0.000000 Rh
