Be4 Si4 Ni8
1.0
  5.377625  0.000000  0.000000
  0.000000  5.377625  0.000000
  0.000000  0.000000  5.542234
Be Si Ni
4 4 8
direct
0.000000 0.500000 0.500000 Be
0.000000 0.000000 0.000000 Be
0.500000 0.500000 0.000000 Be
0.500000 0.000000 0.500000 Be
0.500000 0.000000 0.000000 Si
0.500000 0.500000 0.500000 Si
0.000000 0.000000 0.500000 Si
0.000000 0.500000 0.000000 Si
0.250000 0.250000 0.250000 Ni
0.250000 0.250000 0.750000 Ni
0.250000 0.750000 0.750000 Ni
0.250000 0.750000 0.250000 Ni
0.750000 0.250000 0.750000 Ni
0.750000 0.250000 0.250000 Ni
0.750000 0.750000 0.250000 Ni
0.750000 0.750000 0.750000 Ni
