Hf4 Zn4 Co8
1.0
  5.954111  0.000000  0.000000
  0.000000  5.954111  0.000000
  0.000000  0.000000  6.136368
Hf Zn Co
4 4 8
direct
0.500000 0.000000 0.500000 Hf
0.500000 0.500000 0.000000 Hf
0.000000 0.000000 0.000000 Hf
0.000000 0.500000 0.500000 Hf
0.500000 0.000000 0.000000 Zn
0.500000 0.500000 0.500000 Zn
0.000000 0.000000 0.500000 Zn
0.000000 0.500000 0.000000 Zn
0.250000 0.250000 0.750000 Co
0.750000 0.250000 0.750000 Co
0.250000 0.750000 0.250000 Co
0.750000 0.750000 0.250000 Co
0.750000 0.250000 0.250000 Co
0.250000 0.250000 0.250000 Co
0.750000 0.750000 0.750000 Co
0.250000 0.750000 0.750000 Co
