Sc4 Ga4 Co8
1.0
  5.933265  0.000000  0.000000
  0.000000  5.933265  0.000000
  0.000000  0.000000  6.114883
Sc Ga Co
4 4 8
direct
0.500000 0.500000 0.500000 Sc
0.500000 0.000000 0.000000 Sc
0.000000 0.500000 0.000000 Sc
0.000000 0.000000 0.500000 Sc
0.000000 0.000000 0.000000 Ga
0.000000 0.500000 0.500000 Ga
0.500000 0.000000 0.500000 Ga
0.500000 0.500000 0.000000 Ga
0.250000 0.250000 0.750000 Co
0.250000 0.750000 0.750000 Co
0.250000 0.750000 0.250000 Co
0.250000 0.250000 0.250000 Co
0.750000 0.250000 0.250000 Co
0.750000 0.750000 0.250000 Co
0.750000 0.750000 0.750000 Co
0.750000 0.250000 0.750000 Co
