Hf4 Ga4 Ni8
1.0
  6.011745  0.000000  0.000000
  0.000000  6.011745  0.000000
  0.000000  0.000000  6.195766
Hf Ga Ni
4 4 8
direct
0.500000 0.000000 0.000000 Hf
0.500000 0.500000 0.500000 Hf
0.000000 0.000000 0.500000 Hf
0.000000 0.500000 0.000000 Hf
0.000000 0.000000 0.000000 Ga
0.000000 0.500000 0.500000 Ga
0.500000 0.000000 0.500000 Ga
0.500000 0.500000 0.000000 Ga
0.750000 0.250000 0.250000 Ni
0.250000 0.750000 0.750000 Ni
0.750000 0.750000 0.750000 Ni
0.250000 0.250000 0.250000 Ni
0.250000 0.250000 0.750000 Ni
0.750000 0.750000 0.250000 Ni
0.250000 0.750000 0.250000 Ni
0.750000 0.250000 0.750000 Ni
