Mn4 V2 Ge2
1.0
  4.035274  0.000000  0.000000
  0.000000  4.036843  0.000000
  0.000000  0.000000  5.885021
Mn V Ge
4 2 2
direct
0.000039 0.999981 0.750085 Mn
0.499961 0.500019 0.749915 Mn
0.500039 0.499981 0.250085 Mn
0.999961 0.000019 0.249915 Mn
0.000000 0.500000 0.000000 V
0.500000 0.000000 0.500000 V
0.500000 0.000000 0.000000 Ge
0.000000 0.500000 0.500000 Ge
