Ti8 Ni4 Mo4
1.0
  6.099087  0.000000  0.000000
  0.000000  6.099087  0.000000
  0.000000  0.000000  6.285781
Ti Ni Mo
8 4 4
direct
0.250000 0.750000 0.750000 Ti
0.250000 0.250000 0.750000 Ti
0.250000 0.250000 0.250000 Ti
0.250000 0.750000 0.250000 Ti
0.750000 0.750000 0.250000 Ti
0.750000 0.250000 0.250000 Ti
0.750000 0.250000 0.750000 Ti
0.750000 0.750000 0.750000 Ti
0.500000 0.500000 0.500000 Ni
0.500000 0.000000 0.000000 Ni
0.000000 0.500000 0.000000 Ni
0.000000 0.000000 0.500000 Ni
0.000000 0.000000 0.000000 Mo
0.000000 0.500000 0.500000 Mo
0.500000 0.000000 0.500000 Mo
0.500000 0.500000 0.000000 Mo
