Al8 Fe4 Ni4
1.0
  5.686916  0.000000  0.000000
  0.000000  5.686916  0.000000
  0.000000  0.000000  5.860994
Al Fe Ni
8 4 4
direct
0.750000 0.250000 0.750000 Al
0.750000 0.250000 0.250000 Al
0.750000 0.750000 0.250000 Al
0.750000 0.750000 0.750000 Al
0.250000 0.250000 0.250000 Al
0.250000 0.250000 0.750000 Al
0.250000 0.750000 0.750000 Al
0.250000 0.750000 0.250000 Al
0.000000 0.000000 0.000000 Fe
0.000000 0.500000 0.500000 Fe
0.500000 0.000000 0.500000 Fe
0.500000 0.500000 0.000000 Fe
0.500000 0.500000 0.500000 Ni
0.500000 0.000000 0.000000 Ni
0.000000 0.500000 0.000000 Ni
0.000000 0.000000 0.500000 Ni
