Ti1 Co1
1.0
  2.948296  0.000000  0.000000
  0.000000  2.948296  0.000000
  0.000000  0.000000  3.038544
Ti Co
1 1
direct
0.000000 0.000000 0.000000 Ti
0.500000 0.500000 0.500000 Co
