Mn3 Cu1 N1
1.0
  3.790559  0.000000  0.000000
  0.000000  3.790559  0.000000
  0.000000  0.000000  3.906588
Mn Cu N
3 1 1
direct
0.000000 0.500000 0.500000 Mn
0.500000 0.500000 0.000000 Mn
0.500000 0.000000 0.500000 Mn
0.000000 0.000000 0.000000 Cu
0.500000 0.500000 0.500000 N
