Sc8 Ni4 Pt4
1.0
  6.427508  0.000000  0.000000
  0.000000  6.427508  0.000000
  0.000000  0.000000  6.624255
Sc Ni Pt
8 4 4
direct
0.250000 0.250000 0.250000 Sc
0.250000 0.250000 0.750000 Sc
0.250000 0.750000 0.750000 Sc
0.250000 0.750000 0.250000 Sc
0.750000 0.250000 0.750000 Sc
0.750000 0.250000 0.250000 Sc
0.750000 0.750000 0.250000 Sc
0.750000 0.750000 0.750000 Sc
0.000000 0.500000 0.500000 Ni
0.000000 0.000000 0.000000 Ni
0.500000 0.500000 0.000000 Ni
0.500000 0.000000 0.500000 Ni
0.000000 0.500000 0.000000 Pt
0.000000 0.000000 0.500000 Pt
0.500000 0.500000 0.500000 Pt
0.500000 0.000000 0.000000 Pt
