Sc8 Ni16
1.0
  6.810574  0.000000  0.000000
  0.000000  6.810574  0.000000
  0.000000  0.000000  7.019047
Sc Ni
8 16
direct
0.250000 0.750000 0.750000 Sc
0.000000 0.000000 0.000000 Sc
0.250000 0.250000 0.250000 Sc
0.000000 0.500000 0.500000 Sc
0.750000 0.750000 0.250000 Sc
0.500000 0.000000 0.500000 Sc
0.750000 0.250000 0.750000 Sc
0.500000 0.500000 0.000000 Sc
0.375000 0.875000 0.125000 Ni
0.125000 0.875000 0.375000 Ni
0.625000 0.125000 0.125000 Ni
0.875000 0.125000 0.375000 Ni
0.375000 0.375000 0.625000 Ni
0.125000 0.375000 0.875000 Ni
0.625000 0.625000 0.625000 Ni
0.875000 0.625000 0.875000 Ni
0.875000 0.875000 0.625000 Ni
0.625000 0.875000 0.875000 Ni
0.125000 0.125000 0.625000 Ni
0.375000 0.125000 0.875000 Ni
0.875000 0.375000 0.125000 Ni
0.625000 0.375000 0.375000 Ni
0.125000 0.625000 0.125000 Ni
0.375000 0.625000 0.375000 Ni
