Mn4 Fe8 Si4
1.0
  5.536622  0.000000  0.000000
  0.000000  5.536622  0.000000
  0.000000  0.000000  5.706098
Mn Fe Si
4 8 4
direct
0.000000 0.000000 0.000000 Mn
0.000000 0.500000 0.500000 Mn
0.500000 0.000000 0.500000 Mn
0.500000 0.500000 0.000000 Mn
0.750000 0.250000 0.250000 Fe
0.750000 0.250000 0.750000 Fe
0.750000 0.750000 0.750000 Fe
0.750000 0.750000 0.250000 Fe
0.250000 0.250000 0.750000 Fe
0.250000 0.250000 0.250000 Fe
0.250000 0.750000 0.250000 Fe
0.250000 0.750000 0.750000 Fe
0.000000 0.000000 0.500000 Si
0.000000 0.500000 0.000000 Si
0.500000 0.000000 0.000000 Si
0.500000 0.500000 0.500000 Si
