Al1 Co1
1.0
  2.825493  0.000000  0.000000
  0.000000  2.825493  0.000000
  0.000000  0.000000  2.911981
Al Co
1 1
direct
0.000000 0.000000 0.000000 Al
0.500000 0.500000 0.500000 Co
