Sc8 Ni4 Ru4
1.0
  6.326032  0.000000  0.000000
  0.000000  6.326032  0.000000
  0.000000  0.000000  6.519672
Sc Ni Ru
8 4 4
direct
0.250000 0.750000 0.750000 Sc
0.250000 0.750000 0.250000 Sc
0.250000 0.250000 0.250000 Sc
0.250000 0.250000 0.750000 Sc
0.750000 0.750000 0.250000 Sc
0.750000 0.750000 0.750000 Sc
0.750000 0.250000 0.750000 Sc
0.750000 0.250000 0.250000 Sc
0.000000 0.000000 0.500000 Ni
0.000000 0.500000 0.000000 Ni
0.500000 0.000000 0.000000 Ni
0.500000 0.500000 0.500000 Ni
0.500000 0.000000 0.500000 Ru
0.500000 0.500000 0.000000 Ru
0.000000 0.000000 0.000000 Ru
0.000000 0.500000 0.500000 Ru
