Zr4 Co4 Bi4
1.0
  6.174499  0.000000  0.000000
  0.000000  6.174499  0.000000
  0.000000  0.000000  6.363502
Zr Co Bi
4 4 4
direct
0.000000 0.000000 0.000000 Zr
0.000000 0.500000 0.500000 Zr
0.500000 0.000000 0.500000 Zr
0.500000 0.500000 0.000000 Zr
0.750000 0.250000 0.750000 Co
0.750000 0.750000 0.250000 Co
0.250000 0.250000 0.250000 Co
0.250000 0.750000 0.750000 Co
0.500000 0.000000 0.000000 Bi
0.500000 0.500000 0.500000 Bi
0.000000 0.000000 0.500000 Bi
0.000000 0.500000 0.000000 Bi
