Mn4 Ge4 Pd8
1.0
  6.160198  0.000000  0.000000
  0.000000  6.160198  0.000000
  0.000000  0.000000  6.348762
Mn Ge Pd
4 4 8
direct
0.000000 0.000000 0.500000 Mn
0.000000 0.500000 0.000000 Mn
0.500000 0.000000 0.000000 Mn
0.500000 0.500000 0.500000 Mn
0.000000 0.000000 0.000000 Ge
0.000000 0.500000 0.500000 Ge
0.500000 0.000000 0.500000 Ge
0.500000 0.500000 0.000000 Ge
0.750000 0.250000 0.250000 Pd
0.250000 0.750000 0.750000 Pd
0.750000 0.750000 0.750000 Pd
0.250000 0.250000 0.250000 Pd
0.250000 0.250000 0.750000 Pd
0.750000 0.750000 0.250000 Pd
0.250000 0.750000 0.250000 Pd
0.750000 0.250000 0.750000 Pd
