Ta4 Ga4 Co8
1.0
  5.900460  0.000000  0.000000
  0.000000  5.900460  0.000000
  0.000000  0.000000  6.081074
Ta Ga Co
4 4 8
direct
0.500000 0.000000 0.000000 Ta
0.500000 0.500000 0.500000 Ta
0.000000 0.000000 0.500000 Ta
0.000000 0.500000 0.000000 Ta
0.000000 0.000000 0.000000 Ga
0.000000 0.500000 0.500000 Ga
0.500000 0.000000 0.500000 Ga
0.500000 0.500000 0.000000 Ga
0.750000 0.250000 0.250000 Co
0.750000 0.250000 0.750000 Co
0.750000 0.750000 0.750000 Co
0.750000 0.750000 0.250000 Co
0.250000 0.250000 0.750000 Co
0.250000 0.250000 0.250000 Co
0.250000 0.750000 0.250000 Co
0.250000 0.750000 0.750000 Co
