Co1 Si1
1.0
  2.753521  0.000000  0.000000
  0.000000  2.753521  0.000000
  0.000000  0.000000  2.837806
Co Si
1 1
direct
0.000000 0.000000 0.000000 Co
0.500000 0.500000 0.500000 Si
