Nb4 Co4 Sn4
1.0
  6.123807  0.000000  0.000000
  0.000000  6.123807  0.000000
  0.000000  0.000000  6.311258
Nb Co Sn
4 4 4
direct
0.000000 0.000000 0.000000 Nb
0.000000 0.500000 0.500000 Nb
0.500000 0.000000 0.500000 Nb
0.500000 0.500000 0.000000 Nb
0.500000 0.000000 0.000000 Co
0.500000 0.500000 0.500000 Co
0.000000 0.000000 0.500000 Co
0.000000 0.500000 0.000000 Co
0.250000 0.750000 0.750000 Sn
0.250000 0.250000 0.250000 Sn
0.750000 0.750000 0.250000 Sn
0.750000 0.250000 0.750000 Sn
