Ca8 Co4 W4
1.0
  6.735574  0.000000  0.000000
  0.000000  6.735574  0.000000
  0.000000  0.000000  6.941751
Ca Co W
8 4 4
direct
0.000000 0.000000 0.000000 Ca
0.750000 0.750000 0.250000 Ca
0.000000 0.500000 0.500000 Ca
0.750000 0.250000 0.750000 Ca
0.500000 0.000000 0.500000 Ca
0.250000 0.750000 0.750000 Ca
0.500000 0.500000 0.000000 Ca
0.250000 0.250000 0.250000 Ca
0.000000 0.000000 0.500000 Co
0.000000 0.500000 0.000000 Co
0.500000 0.000000 0.000000 Co
0.500000 0.500000 0.500000 Co
0.250000 0.250000 0.750000 W
0.250000 0.750000 0.250000 W
0.750000 0.250000 0.250000 W
0.750000 0.750000 0.750000 W
