Cr6 Rh2
1.0
  4.591353  0.000000  0.000000
  0.000000  4.591353  0.000000
  0.000000  0.000000  4.731895
Cr Rh
6 2
direct
0.250000 0.000000 0.500000 Cr
0.750000 0.000000 0.500000 Cr
0.000000 0.500000 0.250000 Cr
0.000000 0.500000 0.750000 Cr
0.500000 0.750000 0.000000 Cr
0.500000 0.250000 0.000000 Cr
0.000000 0.000000 0.000000 Rh
0.500000 0.500000 0.500000 Rh
