Sc4 In4 Ni8
1.0
  6.216188  0.000000  0.000000
  0.000000  6.216188  0.000000
  0.000000  0.000000  6.406467
Sc In Ni
4 4 8
direct
0.000000 0.000000 0.500000 Sc
0.000000 0.500000 0.000000 Sc
0.500000 0.000000 0.000000 Sc
0.500000 0.500000 0.500000 Sc
0.000000 0.000000 0.000000 In
0.000000 0.500000 0.500000 In
0.500000 0.000000 0.500000 In
0.500000 0.500000 0.000000 In
0.750000 0.250000 0.250000 Ni
0.250000 0.750000 0.750000 Ni
0.750000 0.750000 0.750000 Ni
0.250000 0.250000 0.250000 Ni
0.250000 0.250000 0.750000 Ni
0.750000 0.750000 0.250000 Ni
0.250000 0.750000 0.250000 Ni
0.750000 0.250000 0.750000 Ni
