Mn4 Sb4 Pd4
1.0
  6.092328  0.000000  0.000000
  0.000000  6.092328  0.000000
  0.000000  0.000000  6.278815
Mn Sb Pd
4 4 4
direct
0.250000 0.750000 0.750000 Mn
0.250000 0.250000 0.250000 Mn
0.750000 0.750000 0.250000 Mn
0.750000 0.250000 0.750000 Mn
0.000000 0.000000 0.000000 Sb
0.000000 0.500000 0.500000 Sb
0.500000 0.000000 0.500000 Sb
0.500000 0.500000 0.000000 Sb
0.500000 0.000000 0.000000 Pd
0.500000 0.500000 0.500000 Pd
0.000000 0.000000 0.500000 Pd
0.000000 0.500000 0.000000 Pd
