Mn1 Au1
1.0
  3.193264  0.000000  0.000000
  0.000000  3.193264  0.000000
  0.000000  0.000000  3.291010
Mn Au
1 1
direct
0.500000 0.500000 0.500000 Mn
0.000000 0.000000 0.000000 Au
