Sr4 Cr4 W8
1.0
  6.485714  0.000000  0.000000
  0.000000  6.485714  0.000000
  0.000000  0.000000  6.684242
Sr Cr W
4 4 8
direct
0.000000 0.000000 0.500000 Sr
0.000000 0.500000 0.000000 Sr
0.500000 0.000000 0.000000 Sr
0.500000 0.500000 0.500000 Sr
0.000000 0.000000 0.000000 Cr
0.000000 0.500000 0.500000 Cr
0.500000 0.000000 0.500000 Cr
0.500000 0.500000 0.000000 Cr
0.750000 0.250000 0.250000 W
0.250000 0.750000 0.750000 W
0.750000 0.750000 0.750000 W
0.250000 0.250000 0.250000 W
0.250000 0.250000 0.750000 W
0.750000 0.750000 0.250000 W
0.250000 0.750000 0.250000 W
0.750000 0.250000 0.750000 W
