Mn1 V1
1.0
  2.845264  0.000000  0.000000
  0.000000  2.845264  0.000000
  0.000000  0.000000  2.932358
Mn V
1 1
direct
0.000000 0.000000 0.000000 Mn
0.500000 0.500000 0.500000 V
