Fe4 Si4 Tc8
1.0
  5.872297  0.000000  0.000000
  0.000000  5.872297  0.000000
  0.000000  0.000000  6.052049
Fe Si Tc
4 4 8
direct
0.000000 0.500000 0.500000 Fe
0.000000 0.000000 0.000000 Fe
0.500000 0.500000 0.000000 Fe
0.500000 0.000000 0.500000 Fe
0.000000 0.500000 0.000000 Si
0.000000 0.000000 0.500000 Si
0.500000 0.500000 0.500000 Si
0.500000 0.000000 0.000000 Si
0.250000 0.250000 0.250000 Tc
0.250000 0.250000 0.750000 Tc
0.250000 0.750000 0.750000 Tc
0.250000 0.750000 0.250000 Tc
0.750000 0.250000 0.750000 Tc
0.750000 0.250000 0.250000 Tc
0.750000 0.750000 0.250000 Tc
0.750000 0.750000 0.750000 Tc
