Mn4 Be8 Ir4
1.0
  5.496120  0.000000  0.000000
  0.000000  5.496120  0.000000
  0.000000  0.000000  5.664357
Mn Be Ir
4 8 4
direct
0.000000 0.000000 0.500000 Mn
0.000000 0.500000 0.000000 Mn
0.500000 0.000000 0.000000 Mn
0.500000 0.500000 0.500000 Mn
0.250000 0.750000 0.250000 Be
0.250000 0.750000 0.750000 Be
0.250000 0.250000 0.750000 Be
0.250000 0.250000 0.250000 Be
0.750000 0.750000 0.750000 Be
0.750000 0.750000 0.250000 Be
0.750000 0.250000 0.250000 Be
0.750000 0.250000 0.750000 Be
0.000000 0.000000 0.000000 Ir
0.000000 0.500000 0.500000 Ir
0.500000 0.000000 0.500000 Ir
0.500000 0.500000 0.000000 Ir
