Co3 F9
1.0
  2.730748 -4.777569  0.000000
  2.758331  4.729793  0.000000
  0.000000  0.000000  6.640869
Co F
3 9
direct
0.666667 0.333333 0.333331 Co
0.333333 0.666667 0.666669 Co
0.000000 0.000000 0.000000 Co
0.666636 0.834512 0.833370 F
0.165488 0.832124 0.833370 F
0.167876 0.333364 0.833370 F
0.502436 0.502436 0.500000 F
0.497564 0.000000 0.500000 F
0.000000 0.497564 0.500000 F
0.834512 0.666636 0.166630 F
0.333364 0.167876 0.166630 F
0.832124 0.165488 0.166630 F
