Ni3 Sn1
1.0
  3.687080  0.000000  0.000000
  0.000000  3.687080  0.000000
  0.000000  0.000000  3.799942
Ni Sn
3 1
direct
0.000000 0.500000 0.500000 Ni
0.500000 0.500000 0.000000 Ni
0.500000 0.000000 0.500000 Ni
0.000000 0.000000 0.000000 Sn
