Fe4 Pb4 W8
1.0
  6.350815  0.000000  0.000000
  0.000000  6.350815  0.000000
  0.000000  0.000000  6.545215
Fe Pb W
4 4 8
direct
0.500000 0.500000 0.500000 Fe
0.500000 0.000000 0.000000 Fe
0.000000 0.500000 0.000000 Fe
0.000000 0.000000 0.500000 Fe
0.250000 0.750000 0.750000 Pb
0.250000 0.250000 0.250000 Pb
0.750000 0.750000 0.250000 Pb
0.750000 0.250000 0.750000 Pb
0.000000 0.000000 0.000000 W
0.750000 0.250000 0.250000 W
0.000000 0.500000 0.500000 W
0.750000 0.750000 0.750000 W
0.500000 0.000000 0.500000 W
0.250000 0.250000 0.750000 W
0.500000 0.500000 0.000000 W
0.250000 0.750000 0.250000 W
