Mn4 In4 Ni8
1.0
  5.989239  0.000000  0.000000
  0.000000  5.989239  0.000000
  0.000000  0.000000  6.172570
Mn In Ni
4 4 8
direct
0.000000 0.000000 0.500000 Mn
0.000000 0.500000 0.000000 Mn
0.500000 0.000000 0.000000 Mn
0.500000 0.500000 0.500000 Mn
0.000000 0.000000 0.000000 In
0.000000 0.500000 0.500000 In
0.500000 0.000000 0.500000 In
0.500000 0.500000 0.000000 In
0.250000 0.750000 0.750000 Ni
0.750000 0.250000 0.250000 Ni
0.250000 0.250000 0.250000 Ni
0.750000 0.750000 0.750000 Ni
0.750000 0.750000 0.250000 Ni
0.250000 0.250000 0.750000 Ni
0.750000 0.250000 0.750000 Ni
0.250000 0.750000 0.250000 Ni
