Cr3 Pt1 N1
1.0
  3.802036  0.000000  0.000000
  0.000000  3.802036  0.000000
  0.000000  0.000000  3.918416
Cr Pt N
3 1 1
direct
0.500000 0.000000 0.500000 Cr
0.000000 0.500000 0.500000 Cr
0.500000 0.500000 0.000000 Cr
0.000000 0.000000 0.000000 Pt
0.500000 0.500000 0.500000 N
