Ti8 Mn4 Ir4
1.0
  6.031074  0.000000  0.000000
  0.000000  6.031074  0.000000
  0.000000  0.000000  6.215686
Ti Mn Ir
8 4 4
direct
0.250000 0.750000 0.750000 Ti
0.250000 0.750000 0.250000 Ti
0.250000 0.250000 0.250000 Ti
0.250000 0.250000 0.750000 Ti
0.750000 0.750000 0.250000 Ti
0.750000 0.750000 0.750000 Ti
0.750000 0.250000 0.750000 Ti
0.750000 0.250000 0.250000 Ti
0.000000 0.000000 0.500000 Mn
0.000000 0.500000 0.000000 Mn
0.500000 0.000000 0.000000 Mn
0.500000 0.500000 0.500000 Mn
0.000000 0.000000 0.000000 Ir
0.000000 0.500000 0.500000 Ir
0.500000 0.000000 0.500000 Ir
0.500000 0.500000 0.000000 Ir
