Mn3 Ge1
1.0
  3.614983  0.000000  0.000000
  0.000000  3.614983  0.000000
  0.000000  0.000000  3.725638
Mn Ge
3 1
direct
0.000000 0.500000 0.500000 Mn
0.500000 0.500000 0.000000 Mn
0.500000 0.000000 0.500000 Mn
0.000000 0.000000 0.000000 Ge
