Mn4 Ga8 Tc4
1.0
  5.950869  0.000000  0.000000
  0.000000  5.950869  0.000000
  0.000000  0.000000  6.133026
Mn Ga Tc
4 8 4
direct
0.500000 0.500000 0.500000 Mn
0.500000 0.000000 0.000000 Mn
0.000000 0.500000 0.000000 Mn
0.000000 0.000000 0.500000 Mn
0.250000 0.750000 0.750000 Ga
0.250000 0.250000 0.750000 Ga
0.250000 0.250000 0.250000 Ga
0.250000 0.750000 0.250000 Ga
0.750000 0.750000 0.250000 Ga
0.750000 0.250000 0.250000 Ga
0.750000 0.250000 0.750000 Ga
0.750000 0.750000 0.750000 Ga
0.000000 0.000000 0.000000 Tc
0.000000 0.500000 0.500000 Tc
0.500000 0.000000 0.500000 Tc
0.500000 0.500000 0.000000 Tc
