Fe12 Ge4
1.0
  5.690636  0.000000  0.000000
  0.000000  5.690636  0.000000
  0.000000  0.000000  5.864827
Fe Ge
12 4
direct
0.500000 0.000000 0.000000 Fe
0.250000 0.750000 0.750000 Fe
0.750000 0.250000 0.250000 Fe
0.500000 0.500000 0.500000 Fe
0.250000 0.250000 0.250000 Fe
0.750000 0.750000 0.750000 Fe
0.000000 0.000000 0.500000 Fe
0.750000 0.750000 0.250000 Fe
0.250000 0.250000 0.750000 Fe
0.000000 0.500000 0.000000 Fe
0.750000 0.250000 0.750000 Fe
0.250000 0.750000 0.250000 Fe
0.000000 0.000000 0.000000 Ge
0.000000 0.500000 0.500000 Ge
0.500000 0.000000 0.500000 Ge
0.500000 0.500000 0.000000 Ge
