Ga4 Ni4 Rh8
1.0
  5.934907  0.000000  0.000000
  0.000000  5.934907  0.000000
  0.000000  0.000000  6.116576
Ga Ni Rh
4 4 8
direct
0.000000 0.500000 0.000000 Ga
0.000000 0.000000 0.500000 Ga
0.500000 0.500000 0.500000 Ga
0.500000 0.000000 0.000000 Ga
0.500000 0.000000 0.500000 Ni
0.500000 0.500000 0.000000 Ni
0.000000 0.000000 0.000000 Ni
0.000000 0.500000 0.500000 Ni
0.250000 0.250000 0.750000 Rh
0.250000 0.250000 0.250000 Rh
0.250000 0.750000 0.250000 Rh
0.250000 0.750000 0.750000 Rh
0.750000 0.250000 0.250000 Rh
0.750000 0.250000 0.750000 Rh
0.750000 0.750000 0.750000 Rh
0.750000 0.750000 0.250000 Rh
