Mn4 Co8 Si4
1.0
  5.573150  0.000000  0.000000
  0.000000  5.573150  0.000000
  0.000000  0.000000  5.743745
Mn Co Si
4 8 4
direct
0.000000 0.000000 0.000000 Mn
0.000000 0.500000 0.500000 Mn
0.500000 0.000000 0.500000 Mn
0.500000 0.500000 0.000000 Mn
0.750000 0.250000 0.250000 Co
0.250000 0.750000 0.750000 Co
0.750000 0.750000 0.750000 Co
0.250000 0.250000 0.250000 Co
0.250000 0.250000 0.750000 Co
0.750000 0.750000 0.250000 Co
0.250000 0.750000 0.250000 Co
0.750000 0.250000 0.750000 Co
0.000000 0.500000 0.000000 Si
0.000000 0.000000 0.500000 Si
0.500000 0.500000 0.500000 Si
0.500000 0.000000 0.000000 Si
