In4 Co4 Si8
1.0
  6.269553  0.000000  0.000000
  0.000000  6.269553  0.000000
  0.000000  0.000000  6.461465
In Co Si
4 4 8
direct
0.000000 0.500000 0.000000 In
0.000000 0.000000 0.500000 In
0.500000 0.500000 0.500000 In
0.500000 0.000000 0.000000 In
0.000000 0.000000 0.000000 Co
0.000000 0.500000 0.500000 Co
0.500000 0.000000 0.500000 Co
0.500000 0.500000 0.000000 Co
0.250000 0.750000 0.750000 Si
0.750000 0.250000 0.250000 Si
0.250000 0.250000 0.250000 Si
0.750000 0.750000 0.750000 Si
0.750000 0.750000 0.250000 Si
0.250000 0.250000 0.750000 Si
0.750000 0.250000 0.750000 Si
0.250000 0.750000 0.250000 Si
