Ti8 Mn4 Rh4
1.0
  6.023153  0.000000  0.000000
  0.000000  6.023153  0.000000
  0.000000  0.000000  6.207523
Ti Mn Rh
8 4 4
direct
0.250000 0.250000 0.250000 Ti
0.750000 0.250000 0.250000 Ti
0.250000 0.750000 0.750000 Ti
0.750000 0.750000 0.750000 Ti
0.750000 0.250000 0.750000 Ti
0.250000 0.250000 0.750000 Ti
0.750000 0.750000 0.250000 Ti
0.250000 0.750000 0.250000 Ti
0.500000 0.000000 0.500000 Mn
0.500000 0.500000 0.000000 Mn
0.000000 0.000000 0.000000 Mn
0.000000 0.500000 0.500000 Mn
0.500000 0.000000 0.000000 Rh
0.500000 0.500000 0.500000 Rh
0.000000 0.000000 0.500000 Rh
0.000000 0.500000 0.000000 Rh
