Si1 Ni3
1.0
  3.469625  0.000000  0.000000
  0.000000  3.469625  0.000000
  0.000000  0.000000  3.575831
Si Ni
1 3
direct
0.000000 0.000000 0.000000 Si
0.000000 0.500000 0.500000 Ni
0.500000 0.500000 0.000000 Ni
0.500000 0.000000 0.500000 Ni
