Ti4 Co4 Sb4
1.0
  5.834625  0.000000  0.000000
  0.000000  5.834625  0.000000
  0.000000  0.000000  6.013224
Ti Co Sb
4 4 4
direct
0.000000 0.000000 0.000000 Ti
0.000000 0.500000 0.500000 Ti
0.500000 0.000000 0.500000 Ti
0.500000 0.500000 0.000000 Ti
0.250000 0.750000 0.750000 Co
0.250000 0.250000 0.250000 Co
0.750000 0.750000 0.250000 Co
0.750000 0.250000 0.750000 Co
0.000000 0.000000 0.500000 Sb
0.000000 0.500000 0.000000 Sb
0.500000 0.000000 0.000000 Sb
0.500000 0.500000 0.500000 Sb
