Ti4 Co4 Sn4
1.0
  6.062963  0.000000  0.000000
  0.000000  6.062963  0.000000
  0.000000  0.000000  6.248551
Ti Co Sn
4 4 4
direct
0.750000 0.250000 0.750000 Ti
0.750000 0.750000 0.250000 Ti
0.250000 0.250000 0.250000 Ti
0.250000 0.750000 0.750000 Ti
0.000000 0.000000 0.000000 Co
0.000000 0.500000 0.500000 Co
0.500000 0.000000 0.500000 Co
0.500000 0.500000 0.000000 Co
0.500000 0.000000 0.000000 Sn
0.500000 0.500000 0.500000 Sn
0.000000 0.000000 0.500000 Sn
0.000000 0.500000 0.000000 Sn
