Ti4 Ni4 Sn4
1.0
  6.093450  0.000000  0.000000
  0.000000  6.093450  0.000000
  0.000000  0.000000  6.279971
Ti Ni Sn
4 4 4
direct
0.750000 0.250000 0.750000 Ti
0.750000 0.750000 0.250000 Ti
0.250000 0.250000 0.250000 Ti
0.250000 0.750000 0.750000 Ti
0.000000 0.000000 0.000000 Ni
0.000000 0.500000 0.500000 Ni
0.500000 0.000000 0.500000 Ni
0.500000 0.500000 0.000000 Ni
0.000000 0.000000 0.500000 Sn
0.000000 0.500000 0.000000 Sn
0.500000 0.000000 0.000000 Sn
0.500000 0.500000 0.500000 Sn
