Nb8 Cr16
1.0
  6.887530  0.000000  0.000000
  0.000000  6.887530  0.000000
  0.000000  0.000000  7.098358
Nb Cr
8 16
direct
0.750000 0.250000 0.750000 Nb
0.000000 0.000000 0.000000 Nb
0.750000 0.750000 0.250000 Nb
0.000000 0.500000 0.500000 Nb
0.250000 0.250000 0.250000 Nb
0.500000 0.000000 0.500000 Nb
0.250000 0.750000 0.750000 Nb
0.500000 0.500000 0.000000 Nb
0.375000 0.875000 0.125000 Cr
0.125000 0.875000 0.375000 Cr
0.625000 0.125000 0.125000 Cr
0.875000 0.125000 0.375000 Cr
0.375000 0.375000 0.625000 Cr
0.125000 0.375000 0.875000 Cr
0.625000 0.625000 0.625000 Cr
0.875000 0.625000 0.875000 Cr
0.875000 0.875000 0.625000 Cr
0.625000 0.875000 0.875000 Cr
0.125000 0.125000 0.625000 Cr
0.375000 0.125000 0.875000 Cr
0.875000 0.375000 0.125000 Cr
0.625000 0.375000 0.375000 Cr
0.125000 0.625000 0.125000 Cr
0.375000 0.625000 0.375000 Cr
