Ti4 Be4 Co8
1.0
  5.535444  0.000000  0.000000
  0.000000  5.535444  0.000000
  0.000000  0.000000  5.704885
Ti Be Co
4 4 8
direct
0.000000 0.000000 0.000000 Ti
0.000000 0.500000 0.500000 Ti
0.500000 0.000000 0.500000 Ti
0.500000 0.500000 0.000000 Ti
0.500000 0.500000 0.500000 Be
0.500000 0.000000 0.000000 Be
0.000000 0.500000 0.000000 Be
0.000000 0.000000 0.500000 Be
0.750000 0.250000 0.250000 Co
0.250000 0.750000 0.750000 Co
0.750000 0.750000 0.750000 Co
0.250000 0.250000 0.250000 Co
0.250000 0.250000 0.750000 Co
0.750000 0.750000 0.250000 Co
0.250000 0.750000 0.250000 Co
0.750000 0.250000 0.750000 Co
