Ca6 Ga8 Ni8
1.0
  7.322965  0.000000  0.000000
  0.000000  7.322965  0.000000
  0.000000  0.000000  7.547122
Ca Ga Ni
6 8 8
direct
0.500000 0.000000 0.000000 Ca
0.500000 0.000000 0.500000 Ca
0.000000 0.000000 0.500000 Ca
0.000000 0.500000 0.500000 Ca
0.000000 0.500000 0.000000 Ca
0.500000 0.500000 0.000000 Ca
0.805008 0.805008 0.194992 Ga
0.194992 0.805008 0.805008 Ga
0.194992 0.194992 0.194992 Ga
0.805008 0.194992 0.805008 Ga
0.305008 0.305008 0.694992 Ga
0.694992 0.305008 0.305008 Ga
0.694992 0.694992 0.694992 Ga
0.305008 0.694992 0.305008 Ga
0.122697 0.877303 0.122697 Ni
0.877303 0.122697 0.122697 Ni
0.122697 0.122697 0.877303 Ni
0.877303 0.877303 0.877303 Ni
0.622697 0.377303 0.622697 Ni
0.377303 0.622697 0.622697 Ni
0.622697 0.622697 0.377303 Ni
0.377303 0.377303 0.377303 Ni
