Mn4 Ga4 Pt4
1.0
  5.777498  0.000000  0.000000
  0.000000  5.777498  0.000000
  0.000000  0.000000  5.954349
Mn Ga Pt
4 4 4
direct
0.000000 0.000000 0.000000 Mn
0.000000 0.500000 0.500000 Mn
0.500000 0.000000 0.500000 Mn
0.500000 0.500000 0.000000 Mn
0.250000 0.750000 0.750000 Ga
0.250000 0.250000 0.250000 Ga
0.750000 0.750000 0.250000 Ga
0.750000 0.250000 0.750000 Ga
0.000000 0.500000 0.000000 Pt
0.000000 0.000000 0.500000 Pt
0.500000 0.500000 0.500000 Pt
0.500000 0.000000 0.000000 Pt
