Mn4 Ge4 Rh8
1.0
  6.032226  0.000000  0.000000
  0.000000  6.032226  0.000000
  0.000000  0.000000  6.216874
Mn Ge Rh
4 4 8
direct
0.500000 0.500000 0.500000 Mn
0.500000 0.000000 0.000000 Mn
0.000000 0.500000 0.000000 Mn
0.000000 0.000000 0.500000 Mn
0.000000 0.000000 0.000000 Ge
0.000000 0.500000 0.500000 Ge
0.500000 0.000000 0.500000 Ge
0.500000 0.500000 0.000000 Ge
0.250000 0.750000 0.750000 Rh
0.750000 0.250000 0.250000 Rh
0.250000 0.250000 0.250000 Rh
0.750000 0.750000 0.750000 Rh
0.750000 0.750000 0.250000 Rh
0.250000 0.250000 0.750000 Rh
0.750000 0.250000 0.750000 Rh
0.250000 0.750000 0.250000 Rh
