Fe3 Ni1 N1
1.0
  4.247931  0.000000  0.000000
  0.000000  4.247931  0.000000
  0.000000  0.000000  4.377960
Fe Ni N
3 1 1
direct
0.000000 0.500000 0.500000 Fe
0.500000 0.500000 0.000000 Fe
0.500000 0.000000 0.500000 Fe
0.500000 0.500000 0.500000 Ni
0.000000 0.000000 0.000000 N
