Cu8 Ni4 Sn4
1.0
  5.990003  0.000000  0.000000
  0.000000  5.990003  0.000000
  0.000000  0.000000  6.173358
Cu Ni Sn
8 4 4
direct
0.250000 0.750000 0.750000 Cu
0.750000 0.250000 0.250000 Cu
0.250000 0.250000 0.250000 Cu
0.750000 0.750000 0.750000 Cu
0.750000 0.750000 0.250000 Cu
0.250000 0.250000 0.750000 Cu
0.750000 0.250000 0.750000 Cu
0.250000 0.750000 0.250000 Cu
0.500000 0.000000 0.000000 Ni
0.500000 0.500000 0.500000 Ni
0.000000 0.000000 0.500000 Ni
0.000000 0.500000 0.000000 Ni
0.000000 0.000000 0.000000 Sn
0.000000 0.500000 0.500000 Sn
0.500000 0.000000 0.500000 Sn
0.500000 0.500000 0.000000 Sn
