Nb4 Fe4 Sb4
1.0
  5.909302  0.000000  0.000000
  0.000000  5.909302  0.000000
  0.000000  0.000000  6.090187
Nb Fe Sb
4 4 4
direct
0.000000 0.000000 0.000000 Nb
0.000000 0.500000 0.500000 Nb
0.500000 0.000000 0.500000 Nb
0.500000 0.500000 0.000000 Nb
0.250000 0.750000 0.750000 Fe
0.250000 0.250000 0.250000 Fe
0.750000 0.750000 0.250000 Fe
0.750000 0.250000 0.750000 Fe
0.000000 0.500000 0.000000 Sb
0.000000 0.000000 0.500000 Sb
0.500000 0.500000 0.500000 Sb
0.500000 0.000000 0.000000 Sb
