Mg1 Co3 C1
1.0
  3.740077  0.000000  0.000000
  0.000000  3.740077  0.000000
  0.000000  0.000000  3.854562
Mg Co C
1 3 1
direct
0.000000 0.000000 0.000000 Mg
0.000000 0.500000 0.500000 Co
0.500000 0.000000 0.500000 Co
0.500000 0.500000 0.000000 Co
0.500000 0.500000 0.500000 C
