Hf4 Co4 Sb4
1.0
  6.236194  0.000000  0.000000
  0.000000  6.236194  0.000000
  0.000000  0.000000  6.427085
Hf Co Sb
4 4 4
direct
0.000000 0.500000 0.000000 Hf
0.000000 0.000000 0.500000 Hf
0.500000 0.500000 0.500000 Hf
0.500000 0.000000 0.000000 Hf
0.000000 0.000000 0.000000 Co
0.000000 0.500000 0.500000 Co
0.500000 0.000000 0.500000 Co
0.500000 0.500000 0.000000 Co
0.250000 0.750000 0.750000 Sb
0.250000 0.250000 0.250000 Sb
0.750000 0.750000 0.250000 Sb
0.750000 0.250000 0.750000 Sb
