Zr9 In14 Co7
1.0
  9.362078  0.000000  0.000000
  4.727348 -8.111022  0.000000
  4.725865 -2.730404 -7.883315
Zr In Co
9 14 7
direct
0.621256 0.136526 0.621007 Zr
0.379020 0.378841 0.863193 Zr
0.863198 0.378678 0.379159 Zr
0.621013 0.621306 0.136463 Zr
0.999807 0.000188 0.000087 Zr
0.378881 0.378716 0.379100 Zr
0.136951 0.621071 0.620934 Zr
0.378751 0.863495 0.379039 Zr
0.620988 0.621066 0.621094 Zr
0.000030 0.342293 0.999852 In
0.657389 0.342766 0.999911 In
0.341700 0.658108 0.000011 In
0.657843 0.999838 0.000074 In
0.342372 0.999963 0.657774 In
0.999911 0.657691 0.342498 In
0.000157 0.342216 0.657766 In
0.000144 0.657550 0.000058 In
0.000125 0.999955 0.657732 In
0.342244 0.000201 0.999957 In
0.657703 0.999949 0.342318 In
0.999997 0.000043 0.342301 In
0.749910 0.750161 0.749844 In
0.249914 0.249845 0.250101 In
0.720471 0.279377 0.279572 Co
0.500009 0.499936 0.499960 Co
0.279956 0.279753 0.720158 Co
0.720452 0.279449 0.720609 Co
0.279738 0.720424 0.720271 Co
0.720325 0.720213 0.279700 Co
0.279745 0.720381 0.279459 Co
