Li4 Ga8 Ni4
1.0
  5.870582  0.000000  0.000000
  0.000000  5.870582  0.000000
  0.000000  0.000000  6.050282
Li Ga Ni
4 8 4
direct
0.000000 0.000000 0.000000 Li
0.000000 0.500000 0.500000 Li
0.500000 0.000000 0.500000 Li
0.500000 0.500000 0.000000 Li
0.250000 0.750000 0.750000 Ga
0.250000 0.750000 0.250000 Ga
0.250000 0.250000 0.250000 Ga
0.250000 0.250000 0.750000 Ga
0.750000 0.750000 0.250000 Ga
0.750000 0.750000 0.750000 Ga
0.750000 0.250000 0.750000 Ga
0.750000 0.250000 0.250000 Ga
0.000000 0.000000 0.500000 Ni
0.000000 0.500000 0.000000 Ni
0.500000 0.000000 0.000000 Ni
0.500000 0.500000 0.500000 Ni
