Li4 Si4 Ni8
1.0
  5.479703  0.000000  0.000000
  0.000000  5.479703  0.000000
  0.000000  0.000000  5.647438
Li Si Ni
4 4 8
direct
0.000000 0.000000 0.500000 Li
0.000000 0.500000 0.000000 Li
0.500000 0.000000 0.000000 Li
0.500000 0.500000 0.500000 Li
0.000000 0.000000 0.000000 Si
0.000000 0.500000 0.500000 Si
0.500000 0.000000 0.500000 Si
0.500000 0.500000 0.000000 Si
0.750000 0.250000 0.250000 Ni
0.750000 0.250000 0.750000 Ni
0.750000 0.750000 0.750000 Ni
0.750000 0.750000 0.250000 Ni
0.250000 0.250000 0.750000 Ni
0.250000 0.250000 0.250000 Ni
0.250000 0.750000 0.250000 Ni
0.250000 0.750000 0.750000 Ni
