Mn4 N1
1.0
  4.278142  0.000000  0.000000
  0.000000  4.284394  0.000000
  0.000000  0.000000  4.426212
Mn N
4 1
direct
0.500000 0.500000 0.500000 Mn
0.000000 0.500000 0.500000 Mn
0.500000 0.000000 0.500000 Mn
0.500000 0.500000 0.000000 Mn
0.000000 0.000000 0.000000 N
