Mn12 Si4 Ir4
1.0
  6.296964  0.000000  0.000000
  0.000000  6.296964  0.000000
  0.000000  0.000000  6.489715
Mn Si Ir
12 4 4
direct
0.547933 0.629653 0.288361 Mn
0.788361 0.952067 0.370347 Mn
0.047933 0.870347 0.711639 Mn
0.870347 0.711639 0.047933 Mn
0.711639 0.047933 0.870347 Mn
0.629653 0.288361 0.547933 Mn
0.129653 0.211639 0.452067 Mn
0.370347 0.788361 0.952067 Mn
0.288361 0.547933 0.629653 Mn
0.452067 0.129653 0.211639 Mn
0.211639 0.452067 0.129653 Mn
0.952067 0.370347 0.788361 Mn
0.940398 0.559602 0.440398 Si
0.559602 0.440398 0.940398 Si
0.440398 0.940398 0.559602 Si
0.059602 0.059602 0.059602 Si
0.313504 0.186496 0.813504 Ir
0.186496 0.813504 0.313504 Ir
0.813504 0.313504 0.186496 Ir
0.686496 0.686496 0.686496 Ir
