Co3 Sn1 C1
1.0
  3.808619  0.000000  0.000000
  0.000000  3.808619  0.000000
  0.000000  0.000000  3.925202
Co Sn C
3 1 1
direct
0.000000 0.500000 0.500000 Co
0.500000 0.500000 0.000000 Co
0.500000 0.000000 0.500000 Co
0.000000 0.000000 0.000000 Sn
0.500000 0.500000 0.500000 C
