Mn4 Al4 Pd8
1.0
  6.125562  0.000000  0.000000
  0.000000  6.125562  0.000000
  0.000000  0.000000  6.313066
Mn Al Pd
4 4 8
direct
0.000000 0.000000 0.500000 Mn
0.000000 0.500000 0.000000 Mn
0.500000 0.000000 0.000000 Mn
0.500000 0.500000 0.500000 Mn
0.000000 0.000000 0.000000 Al
0.000000 0.500000 0.500000 Al
0.500000 0.000000 0.500000 Al
0.500000 0.500000 0.000000 Al
0.750000 0.250000 0.250000 Pd
0.250000 0.750000 0.750000 Pd
0.750000 0.750000 0.750000 Pd
0.250000 0.250000 0.250000 Pd
0.250000 0.250000 0.750000 Pd
0.750000 0.750000 0.250000 Pd
0.250000 0.750000 0.250000 Pd
0.750000 0.250000 0.750000 Pd
