Mn4 Sn4 Au4
1.0
  6.319174  0.000000  0.000000
  0.000000  6.319174  0.000000
  0.000000  0.000000  6.512605
Mn Sn Au
4 4 4
direct
0.500000 0.000000 0.000000 Mn
0.500000 0.500000 0.500000 Mn
0.000000 0.000000 0.500000 Mn
0.000000 0.500000 0.000000 Mn
0.000000 0.000000 0.000000 Sn
0.000000 0.500000 0.500000 Sn
0.500000 0.000000 0.500000 Sn
0.500000 0.500000 0.000000 Sn
0.750000 0.250000 0.250000 Au
0.750000 0.750000 0.750000 Au
0.250000 0.250000 0.750000 Au
0.250000 0.750000 0.250000 Au
