Zr4 Ni20
1.0
  6.626854  0.000000  0.000000
  0.000000  6.626854  0.000000
  0.000000  0.000000  6.829703
Zr Ni
4 20
direct
0.000000 0.000000 0.000000 Zr
0.000000 0.500000 0.500000 Zr
0.500000 0.000000 0.500000 Zr
0.500000 0.500000 0.000000 Zr
0.750000 0.250000 0.250000 Ni
0.123972 0.876028 0.623972 Ni
0.376028 0.876028 0.876028 Ni
0.623972 0.123972 0.876028 Ni
0.876028 0.123972 0.623972 Ni
0.750000 0.750000 0.750000 Ni
0.123972 0.376028 0.123972 Ni
0.376028 0.376028 0.376028 Ni
0.623972 0.623972 0.376028 Ni
0.876028 0.623972 0.123972 Ni
0.250000 0.250000 0.750000 Ni
0.623972 0.876028 0.123972 Ni
0.876028 0.876028 0.376028 Ni
0.123972 0.123972 0.376028 Ni
0.376028 0.123972 0.123972 Ni
0.250000 0.750000 0.250000 Ni
0.623972 0.376028 0.623972 Ni
0.876028 0.376028 0.876028 Ni
0.123972 0.623972 0.876028 Ni
0.376028 0.623972 0.623972 Ni
