Sr4 Zr4 Co4
1.0
  6.503138  0.000000  0.000000
  0.000000  6.503138  0.000000
  0.000000  0.000000  6.702200
Sr Zr Co
4 4 4
direct
0.000000 0.000000 0.500000 Sr
0.000000 0.500000 0.000000 Sr
0.500000 0.000000 0.000000 Sr
0.500000 0.500000 0.500000 Sr
0.750000 0.250000 0.250000 Zr
0.750000 0.750000 0.750000 Zr
0.250000 0.250000 0.750000 Zr
0.250000 0.750000 0.250000 Zr
0.000000 0.000000 0.000000 Co
0.000000 0.500000 0.500000 Co
0.500000 0.000000 0.500000 Co
0.500000 0.500000 0.000000 Co
