Mn4 Si4
1.0
  4.474544  0.000000  0.000000
  0.000000  4.474544  0.000000
  0.000000  0.000000  4.611510
Mn Si
4 4
direct
0.863424 0.636576 0.363424 Mn
0.636576 0.363424 0.863424 Mn
0.363424 0.863424 0.636576 Mn
0.136576 0.136576 0.136576 Mn
0.154866 0.345134 0.654866 Si
0.345134 0.654866 0.154866 Si
0.654866 0.154866 0.345134 Si
0.845134 0.845134 0.845134 Si
