Zr4 Cr4 Fe4
1.0
  5.796649  0.000000  0.000000
  0.000000  5.796649  0.000000
  0.000000  0.000000  5.974085
Zr Cr Fe
4 4 4
direct
0.000000 0.000000 0.500000 Zr
0.000000 0.500000 0.000000 Zr
0.500000 0.000000 0.000000 Zr
0.500000 0.500000 0.500000 Zr
0.750000 0.250000 0.250000 Cr
0.750000 0.750000 0.750000 Cr
0.250000 0.250000 0.750000 Cr
0.250000 0.750000 0.250000 Cr
0.000000 0.000000 0.000000 Fe
0.000000 0.500000 0.500000 Fe
0.500000 0.000000 0.500000 Fe
0.500000 0.500000 0.000000 Fe
