Sr4 Cr4 Pd8
1.0
  6.792241  0.000000  0.000000
  0.000000  6.792241  0.000000
  0.000000  0.000000  7.000153
Sr Cr Pd
4 4 8
direct
0.250000 0.750000 0.750000 Sr
0.250000 0.250000 0.250000 Sr
0.750000 0.750000 0.250000 Sr
0.750000 0.250000 0.750000 Sr
0.500000 0.000000 0.000000 Cr
0.500000 0.500000 0.500000 Cr
0.000000 0.000000 0.500000 Cr
0.000000 0.500000 0.000000 Cr
0.000000 0.000000 0.000000 Pd
0.750000 0.250000 0.250000 Pd
0.000000 0.500000 0.500000 Pd
0.750000 0.750000 0.750000 Pd
0.500000 0.000000 0.500000 Pd
0.250000 0.250000 0.750000 Pd
0.500000 0.500000 0.000000 Pd
0.250000 0.750000 0.250000 Pd
