Nb4 Co8 Sn4
1.0
  6.117190  0.000000  0.000000
  0.000000  6.117190  0.000000
  0.000000  0.000000  6.304438
Nb Co Sn
4 8 4
direct
0.000000 0.000000 0.500000 Nb
0.000000 0.500000 0.000000 Nb
0.500000 0.000000 0.000000 Nb
0.500000 0.500000 0.500000 Nb
0.750000 0.750000 0.250000 Co
0.750000 0.750000 0.750000 Co
0.750000 0.250000 0.750000 Co
0.750000 0.250000 0.250000 Co
0.250000 0.750000 0.750000 Co
0.250000 0.750000 0.250000 Co
0.250000 0.250000 0.250000 Co
0.250000 0.250000 0.750000 Co
0.000000 0.000000 0.000000 Sn
0.000000 0.500000 0.500000 Sn
0.500000 0.000000 0.500000 Sn
0.500000 0.500000 0.000000 Sn
