Fe3 Sn1
1.0
  3.780336  0.000000  0.000000
  0.000000  3.780336  0.000000
  0.000000  0.000000  3.896052
Fe Sn
3 1
direct
0.000000 0.500000 0.500000 Fe
0.500000 0.500000 0.000000 Fe
0.500000 0.000000 0.500000 Fe
0.000000 0.000000 0.000000 Sn
