Mn4 As4 Pd8
1.0
  6.233249  0.000000  0.000000
  0.000000  6.233249  0.000000
  0.000000  0.000000  6.424050
Mn As Pd
4 4 8
direct
0.000000 0.000000 0.500000 Mn
0.000000 0.500000 0.000000 Mn
0.500000 0.000000 0.000000 Mn
0.500000 0.500000 0.500000 Mn
0.000000 0.000000 0.000000 As
0.000000 0.500000 0.500000 As
0.500000 0.000000 0.500000 As
0.500000 0.500000 0.000000 As
0.250000 0.750000 0.750000 Pd
0.750000 0.250000 0.250000 Pd
0.250000 0.250000 0.250000 Pd
0.750000 0.750000 0.750000 Pd
0.750000 0.750000 0.250000 Pd
0.250000 0.250000 0.750000 Pd
0.750000 0.250000 0.750000 Pd
0.250000 0.750000 0.250000 Pd
