Al4 Cr4 Co8
1.0
  5.652394  0.000000  0.000000
  0.000000  5.652394  0.000000
  0.000000  0.000000  5.825415
Al Cr Co
4 4 8
direct
0.000000 0.000000 0.000000 Al
0.000000 0.500000 0.500000 Al
0.500000 0.000000 0.500000 Al
0.500000 0.500000 0.000000 Al
0.000000 0.500000 0.000000 Cr
0.000000 0.000000 0.500000 Cr
0.500000 0.500000 0.500000 Cr
0.500000 0.000000 0.000000 Cr
0.250000 0.750000 0.750000 Co
0.750000 0.250000 0.250000 Co
0.250000 0.250000 0.250000 Co
0.750000 0.750000 0.750000 Co
0.750000 0.750000 0.250000 Co
0.250000 0.250000 0.750000 Co
0.750000 0.250000 0.750000 Co
0.250000 0.750000 0.250000 Co
