Zn8 Ni4 Rh4
1.0
  5.864890  0.000000  0.000000
  0.000000  5.864890  0.000000
  0.000000  0.000000  6.044415
Zn Ni Rh
8 4 4
direct
0.250000 0.250000 0.250000 Zn
0.250000 0.250000 0.750000 Zn
0.250000 0.750000 0.750000 Zn
0.250000 0.750000 0.250000 Zn
0.750000 0.250000 0.750000 Zn
0.750000 0.250000 0.250000 Zn
0.750000 0.750000 0.250000 Zn
0.750000 0.750000 0.750000 Zn
0.000000 0.500000 0.500000 Ni
0.000000 0.000000 0.000000 Ni
0.500000 0.500000 0.000000 Ni
0.500000 0.000000 0.500000 Ni
0.000000 0.500000 0.000000 Rh
0.000000 0.000000 0.500000 Rh
0.500000 0.500000 0.500000 Rh
0.500000 0.000000 0.000000 Rh
