Ni4 P8
1.0
  5.398307  0.000000  0.000000
  0.000000  5.398307  0.000000
  0.000000  0.000000  5.563550
Ni P
4 8
direct
0.000000 0.500000 0.500000 Ni
0.500000 0.500000 0.000000 Ni
0.500000 0.000000 0.500000 Ni
0.000000 0.000000 0.000000 Ni
0.383936 0.116064 0.883936 P
0.116064 0.883936 0.383936 P
0.883936 0.383936 0.116064 P
0.616064 0.616064 0.616064 P
0.383936 0.383936 0.383936 P
0.116064 0.616064 0.883936 P
0.883936 0.116064 0.616064 P
0.616064 0.883936 0.116064 P
