Mn4 Ge4 Ru8
1.0
  5.952697  0.000000  0.000000
  0.000000  5.952697  0.000000
  0.000000  0.000000  6.134910
Mn Ge Ru
4 4 8
direct
0.000000 0.000000 0.000000 Mn
0.000000 0.500000 0.500000 Mn
0.500000 0.000000 0.500000 Mn
0.500000 0.500000 0.000000 Mn
0.500000 0.500000 0.500000 Ge
0.500000 0.000000 0.000000 Ge
0.000000 0.500000 0.000000 Ge
0.000000 0.000000 0.500000 Ge
0.750000 0.250000 0.750000 Ru
0.750000 0.250000 0.250000 Ru
0.750000 0.750000 0.250000 Ru
0.750000 0.750000 0.750000 Ru
0.250000 0.250000 0.250000 Ru
0.250000 0.250000 0.750000 Ru
0.250000 0.750000 0.750000 Ru
0.250000 0.750000 0.250000 Ru
