Mn1 Rh1
1.0
  3.008715  0.000000  0.000000
  0.000000  3.008715  0.000000
  0.000000  0.000000  3.111045
Mn Rh
1 1
direct
0.000000 0.000000 0.000000 Mn
0.500000 0.500000 0.500000 Rh
