Mn4 Sn4 Pd8
1.0
  6.367541  0.000000  0.000000
  0.000000  6.367541  0.000000
  0.000000  0.000000  6.562453
Mn Sn Pd
4 4 8
direct
0.000000 0.000000 0.000000 Mn
0.000000 0.500000 0.500000 Mn
0.500000 0.000000 0.500000 Mn
0.500000 0.500000 0.000000 Mn
0.500000 0.500000 0.500000 Sn
0.500000 0.000000 0.000000 Sn
0.000000 0.500000 0.000000 Sn
0.000000 0.000000 0.500000 Sn
0.250000 0.750000 0.750000 Pd
0.750000 0.250000 0.250000 Pd
0.250000 0.250000 0.250000 Pd
0.750000 0.750000 0.750000 Pd
0.750000 0.750000 0.250000 Pd
0.250000 0.250000 0.750000 Pd
0.750000 0.250000 0.750000 Pd
0.250000 0.750000 0.250000 Pd
