Co4 Ge4
1.0
  4.593731  0.000000  0.000000
  0.000000  4.593731  0.000000
  0.000000  0.000000  4.734345
Co Ge
4 4
direct
0.136081 0.136081 0.136081 Co
0.363919 0.863919 0.636081 Co
0.636081 0.363919 0.863919 Co
0.863919 0.636081 0.363919 Co
0.839507 0.839507 0.839507 Ge
0.660493 0.160493 0.339507 Ge
0.339507 0.660493 0.160493 Ge
0.160493 0.339507 0.660493 Ge
