Mn4 Sb4 Ir4
1.0
  6.054842  0.000000  0.000000
  0.000000  6.054842  0.000000
  0.000000  0.000000  6.240182
Mn Sb Ir
4 4 4
direct
0.500000 0.000000 0.000000 Mn
0.500000 0.500000 0.500000 Mn
0.000000 0.000000 0.500000 Mn
0.000000 0.500000 0.000000 Mn
0.000000 0.000000 0.000000 Sb
0.000000 0.500000 0.500000 Sb
0.500000 0.000000 0.500000 Sb
0.500000 0.500000 0.000000 Sb
0.250000 0.750000 0.750000 Ir
0.250000 0.250000 0.250000 Ir
0.750000 0.750000 0.250000 Ir
0.750000 0.250000 0.750000 Ir
