Mn4 Sn4 Ru8
1.0
  6.179870  0.000000  0.000000
  0.000000  6.179870  0.000000
  0.000000  0.000000  6.369037
Mn Sn Ru
4 4 8
direct
0.000000 0.000000 0.000000 Mn
0.000000 0.500000 0.500000 Mn
0.500000 0.000000 0.500000 Mn
0.500000 0.500000 0.000000 Mn
0.000000 0.000000 0.500000 Sn
0.000000 0.500000 0.000000 Sn
0.500000 0.000000 0.000000 Sn
0.500000 0.500000 0.500000 Sn
0.250000 0.750000 0.750000 Ru
0.250000 0.750000 0.250000 Ru
0.250000 0.250000 0.250000 Ru
0.250000 0.250000 0.750000 Ru
0.750000 0.750000 0.250000 Ru
0.750000 0.750000 0.750000 Ru
0.750000 0.250000 0.750000 Ru
0.750000 0.250000 0.250000 Ru
