Mn8 V4 Si4
1.0
  5.617033  0.000000  0.000000
  0.000000  5.617033  0.000000
  0.000000  0.000000  5.788972
Mn V Si
8 4 4
direct
0.250000 0.250000 0.250000 Mn
0.250000 0.250000 0.750000 Mn
0.250000 0.750000 0.750000 Mn
0.250000 0.750000 0.250000 Mn
0.750000 0.250000 0.750000 Mn
0.750000 0.250000 0.250000 Mn
0.750000 0.750000 0.250000 Mn
0.750000 0.750000 0.750000 Mn
0.000000 0.500000 0.000000 V
0.000000 0.000000 0.500000 V
0.500000 0.500000 0.500000 V
0.500000 0.000000 0.000000 V
0.000000 0.500000 0.500000 Si
0.000000 0.000000 0.000000 Si
0.500000 0.500000 0.000000 Si
0.500000 0.000000 0.500000 Si
