Mn1 Pd1
1.0
  3.095676  0.000000  0.000000
  0.000000  3.095676  0.000000
  0.000000  0.000000  3.190435
Mn Pd
1 1
direct
0.000000 0.000000 0.000000 Mn
0.500000 0.500000 0.500000 Pd
