Mn3 Ni1 N1
1.0
  3.800104  0.000000  0.000000
  0.000000  3.800104  0.000000
  0.000000  0.000000  3.916426
Mn Ni N
3 1 1
direct
0.000000 0.500000 0.500000 Mn
0.500000 0.500000 0.000000 Mn
0.500000 0.000000 0.500000 Mn
0.000000 0.000000 0.000000 Ni
0.500000 0.500000 0.500000 N
