Zn4 Ni8 Ge4
1.0
  5.752764  0.000000  0.000000
  0.000000  5.752764  0.000000
  0.000000  0.000000  5.928857
Zn Ni Ge
4 8 4
direct
0.000000 0.000000 0.000000 Zn
0.000000 0.500000 0.500000 Zn
0.500000 0.000000 0.500000 Zn
0.500000 0.500000 0.000000 Zn
0.250000 0.750000 0.750000 Ni
0.750000 0.250000 0.250000 Ni
0.250000 0.250000 0.250000 Ni
0.750000 0.750000 0.750000 Ni
0.750000 0.750000 0.250000 Ni
0.250000 0.250000 0.750000 Ni
0.750000 0.250000 0.750000 Ni
0.250000 0.750000 0.250000 Ni
0.500000 0.500000 0.500000 Ge
0.500000 0.000000 0.000000 Ge
0.000000 0.500000 0.000000 Ge
0.000000 0.000000 0.500000 Ge
