In4 Fe4 As4
1.0
  6.218741  0.000000  0.000000
  0.000000  6.218741  0.000000
  0.000000  0.000000  6.409098
In Fe As
4 4 4
direct
0.750000 0.250000 0.250000 In
0.750000 0.750000 0.750000 In
0.250000 0.250000 0.750000 In
0.250000 0.750000 0.250000 In
0.000000 0.000000 0.500000 Fe
0.000000 0.500000 0.000000 Fe
0.500000 0.000000 0.000000 Fe
0.500000 0.500000 0.500000 Fe
0.000000 0.000000 0.000000 As
0.000000 0.500000 0.500000 As
0.500000 0.000000 0.500000 As
0.500000 0.500000 0.000000 As
