Mn4 Cu4 Sb4
1.0
  6.024022  0.000000  0.000000
  0.000000  6.024022  0.000000
  0.000000  0.000000  6.208419
Mn Cu Sb
4 4 4
direct
0.000000 0.000000 0.500000 Mn
0.000000 0.500000 0.000000 Mn
0.500000 0.000000 0.000000 Mn
0.500000 0.500000 0.500000 Mn
0.250000 0.750000 0.750000 Cu
0.250000 0.250000 0.250000 Cu
0.750000 0.750000 0.250000 Cu
0.750000 0.250000 0.750000 Cu
0.000000 0.000000 0.000000 Sb
0.000000 0.500000 0.500000 Sb
0.500000 0.000000 0.500000 Sb
0.500000 0.500000 0.000000 Sb
