Ti4 Mn4 Co8
1.0
  5.783910  0.000000  0.000000
  0.000000  5.783910  0.000000
  0.000000  0.000000  5.960956
Ti Mn Co
4 4 8
direct
0.500000 0.500000 0.500000 Ti
0.500000 0.000000 0.000000 Ti
0.000000 0.500000 0.000000 Ti
0.000000 0.000000 0.500000 Ti
0.000000 0.000000 0.000000 Mn
0.000000 0.500000 0.500000 Mn
0.500000 0.000000 0.500000 Mn
0.500000 0.500000 0.000000 Mn
0.750000 0.250000 0.250000 Co
0.750000 0.250000 0.750000 Co
0.750000 0.750000 0.750000 Co
0.750000 0.750000 0.250000 Co
0.250000 0.250000 0.750000 Co
0.250000 0.250000 0.250000 Co
0.250000 0.750000 0.250000 Co
0.250000 0.750000 0.750000 Co
