Zr4 Ni4 Ge4
1.0
  6.120864  0.000000  0.000000
  0.000000  6.120864  0.000000
  0.000000  0.000000  6.308225
Zr Ni Ge
4 4 4
direct
0.250000 0.750000 0.750000 Zr
0.250000 0.250000 0.250000 Zr
0.750000 0.750000 0.250000 Zr
0.750000 0.250000 0.750000 Zr
0.000000 0.000000 0.500000 Ni
0.000000 0.500000 0.000000 Ni
0.500000 0.000000 0.000000 Ni
0.500000 0.500000 0.500000 Ni
0.000000 0.000000 0.000000 Ge
0.000000 0.500000 0.500000 Ge
0.500000 0.000000 0.500000 Ge
0.500000 0.500000 0.000000 Ge
