Ti4 Cr4 Ag4
1.0
  6.046111  0.000000  0.000000
  0.000000  6.046111  0.000000
  0.000000  0.000000  6.231184
Ti Cr Ag
4 4 4
direct
0.000000 0.000000 0.000000 Ti
0.000000 0.500000 0.500000 Ti
0.500000 0.000000 0.500000 Ti
0.500000 0.500000 0.000000 Ti
0.750000 0.250000 0.250000 Cr
0.750000 0.750000 0.750000 Cr
0.250000 0.250000 0.750000 Cr
0.250000 0.750000 0.250000 Cr
0.000000 0.000000 0.500000 Ag
0.000000 0.500000 0.000000 Ag
0.500000 0.000000 0.000000 Ag
0.500000 0.500000 0.500000 Ag
