Mn3 Zn1 N1
1.0
  3.752452  0.000000  0.000000
  0.000000  3.752452  0.000000
  0.000000  0.000000  3.867316
Mn Zn N
3 1 1
direct
0.500000 0.000000 0.500000 Mn
0.000000 0.500000 0.500000 Mn
0.500000 0.500000 0.000000 Mn
0.000000 0.000000 0.000000 Zn
0.500000 0.500000 0.500000 N
