Nb4 Co4 Sn4
1.0
  6.161251  0.000000  0.000000
  0.000000  6.161251  0.000000
  0.000000  0.000000  6.349848
Nb Co Sn
4 4 4
direct
0.250000 0.750000 0.750000 Nb
0.250000 0.250000 0.250000 Nb
0.750000 0.750000 0.250000 Nb
0.750000 0.250000 0.750000 Nb
0.000000 0.000000 0.500000 Co
0.000000 0.500000 0.000000 Co
0.500000 0.000000 0.000000 Co
0.500000 0.500000 0.500000 Co
0.000000 0.000000 0.000000 Sn
0.000000 0.500000 0.500000 Sn
0.500000 0.000000 0.500000 Sn
0.500000 0.500000 0.000000 Sn
