Zr1 Co1
1.0
  3.162424  0.000000  0.000000
  0.000000  3.162424  0.000000
  0.000000  0.000000  3.259227
Zr Co
1 1
direct
0.000000 0.000000 0.000000 Zr
0.500000 0.500000 0.500000 Co
