Cr6 Si2
1.0
  4.473644  0.000000  0.000000
  0.000000  4.473644  0.000000
  0.000000  0.000000  4.610583
Cr Si
6 2
direct
0.000000 0.500000 0.250000 Cr
0.000000 0.500000 0.750000 Cr
0.500000 0.750000 0.000000 Cr
0.500000 0.250000 0.000000 Cr
0.750000 0.000000 0.500000 Cr
0.250000 0.000000 0.500000 Cr
0.500000 0.500000 0.500000 Si
0.000000 0.000000 0.000000 Si
