Fe3 Sn1 C1
1.0
  3.852257  0.000000  0.000000
  0.000000  3.852257  0.000000
  0.000000  0.000000  3.970175
Fe Sn C
3 1 1
direct
0.500000 0.000000 0.500000 Fe
0.000000 0.500000 0.500000 Fe
0.500000 0.500000 0.000000 Fe
0.000000 0.000000 0.000000 Sn
0.500000 0.500000 0.500000 C
