Zn1 Ni3 C1
1.0
  3.728590  0.000000  0.000000
  0.000000  3.728590  0.000000
  0.000000  0.000000  3.842723
Zn Ni C
1 3 1
direct
0.000000 0.000000 0.000000 Zn
0.000000 0.500000 0.500000 Ni
0.500000 0.500000 0.000000 Ni
0.500000 0.000000 0.500000 Ni
0.500000 0.500000 0.500000 C
