Fe3 Ni1 N1
1.0
  3.736304  0.000000  0.000000
  0.000000  3.736304  0.000000
  0.000000  0.000000  3.850672
Fe Ni N
3 1 1
direct
0.000000 0.500000 0.500000 Fe
0.500000 0.000000 0.500000 Fe
0.500000 0.500000 0.000000 Fe
0.000000 0.000000 0.000000 Ni
0.500000 0.500000 0.500000 N
