Ti4 Co8 Si4
1.0
  5.695070  0.000000  0.000000
  0.000000  5.695070  0.000000
  0.000000  0.000000  5.869397
Ti Co Si
4 8 4
direct
0.000000 0.000000 0.500000 Ti
0.000000 0.500000 0.000000 Ti
0.500000 0.000000 0.000000 Ti
0.500000 0.500000 0.500000 Ti
0.750000 0.250000 0.250000 Co
0.250000 0.750000 0.750000 Co
0.750000 0.750000 0.750000 Co
0.250000 0.250000 0.250000 Co
0.250000 0.250000 0.750000 Co
0.750000 0.750000 0.250000 Co
0.250000 0.750000 0.250000 Co
0.750000 0.250000 0.750000 Co
0.000000 0.000000 0.000000 Si
0.000000 0.500000 0.500000 Si
0.500000 0.000000 0.500000 Si
0.500000 0.500000 0.000000 Si
