Fe3 F9
1.0
  2.735202 -4.785361  0.000000
  2.762830  4.737507  0.000000
  0.000000  0.000000  6.907978
Fe F
3 9
direct
0.666667 0.333333 0.333358 Fe
0.333333 0.666667 0.666642 Fe
0.000000 0.000000 0.000000 Fe
0.666672 0.836160 0.833301 F
0.163840 0.830512 0.833301 F
0.169488 0.333328 0.833301 F
0.505250 0.505250 0.500000 F
0.494750 0.000000 0.500000 F
0.000000 0.494750 0.500000 F
0.836160 0.666672 0.166699 F
0.333328 0.169488 0.166699 F
0.830512 0.163840 0.166699 F
