Mn1 In2 W1
1.0
  4.623384  0.000000  0.000000
 -0.036880  4.627070  0.000000
 -2.308242 -2.342825  3.391074
Mn In W
1 2 1
direct
0.500280 0.500746 0.999152 Mn
0.000264 0.000013 0.999861 In
0.249888 0.750565 0.499302 In
0.749568 0.248677 0.501685 W
