Cr1 Ir3
1.0
  3.787096  0.000000  0.000000
  0.000000  3.787096  0.000000
  0.000000  0.000000  3.903020
Cr Ir
1 3
direct
0.000000 0.000000 0.000000 Cr
0.000000 0.500000 0.500000 Ir
0.500000 0.500000 0.000000 Ir
0.500000 0.000000 0.500000 Ir
