Ta4 Mn4 As4
1.0
  6.002256  0.000000  0.000000
  0.000000  6.002256  0.000000
  0.000000  0.000000  6.185986
Ta Mn As
4 4 4
direct
0.250000 0.750000 0.750000 Ta
0.250000 0.250000 0.250000 Ta
0.750000 0.750000 0.250000 Ta
0.750000 0.250000 0.750000 Ta
0.000000 0.500000 0.000000 Mn
0.000000 0.000000 0.500000 Mn
0.500000 0.500000 0.500000 Mn
0.500000 0.000000 0.000000 Mn
0.000000 0.000000 0.000000 As
0.000000 0.500000 0.500000 As
0.500000 0.000000 0.500000 As
0.500000 0.500000 0.000000 As
