Fe3 Pt1 N1
1.0
  3.821282  0.000000  0.000000
  0.000000  3.821282  0.000000
  0.000000  0.000000  3.938252
Fe Pt N
3 1 1
direct
0.000000 0.500000 0.500000 Fe
0.500000 0.000000 0.500000 Fe
0.500000 0.500000 0.000000 Fe
0.000000 0.000000 0.000000 Pt
0.500000 0.500000 0.500000 N
