Al4 V4 Ni8
1.0
  5.735094  0.000000  0.000000
  0.000000  5.735094  0.000000
  0.000000  0.000000  5.910646
Al V Ni
4 4 8
direct
0.000000 0.000000 0.000000 Al
0.000000 0.500000 0.500000 Al
0.500000 0.000000 0.500000 Al
0.500000 0.500000 0.000000 Al
0.500000 0.000000 0.000000 V
0.500000 0.500000 0.500000 V
0.000000 0.000000 0.500000 V
0.000000 0.500000 0.000000 V
0.250000 0.750000 0.750000 Ni
0.750000 0.250000 0.250000 Ni
0.250000 0.250000 0.250000 Ni
0.750000 0.750000 0.750000 Ni
0.750000 0.750000 0.250000 Ni
0.250000 0.250000 0.750000 Ni
0.750000 0.250000 0.750000 Ni
0.250000 0.750000 0.250000 Ni
