Ti4 Fe8 Sn4
1.0
  5.984521  0.000000  0.000000
  0.000000  5.984521  0.000000
  0.000000  0.000000  6.167708
Ti Fe Sn
4 8 4
direct
0.000000 0.000000 0.000000 Ti
0.000000 0.500000 0.500000 Ti
0.500000 0.000000 0.500000 Ti
0.500000 0.500000 0.000000 Ti
0.250000 0.750000 0.250000 Fe
0.750000 0.750000 0.250000 Fe
0.250000 0.250000 0.750000 Fe
0.750000 0.250000 0.750000 Fe
0.750000 0.750000 0.750000 Fe
0.250000 0.750000 0.750000 Fe
0.750000 0.250000 0.250000 Fe
0.250000 0.250000 0.250000 Fe
0.500000 0.000000 0.000000 Sn
0.500000 0.500000 0.500000 Sn
0.000000 0.000000 0.500000 Sn
0.000000 0.500000 0.000000 Sn
