Fe4 Ge4 Ru8
1.0
  5.953734  0.000000  0.000000
  0.000000  5.953734  0.000000
  0.000000  0.000000  6.135979
Fe Ge Ru
4 4 8
direct
0.000000 0.500000 0.500000 Fe
0.000000 0.000000 0.000000 Fe
0.500000 0.500000 0.000000 Fe
0.500000 0.000000 0.500000 Fe
0.000000 0.500000 0.000000 Ge
0.000000 0.000000 0.500000 Ge
0.500000 0.500000 0.500000 Ge
0.500000 0.000000 0.000000 Ge
0.250000 0.250000 0.750000 Ru
0.250000 0.250000 0.250000 Ru
0.250000 0.750000 0.250000 Ru
0.250000 0.750000 0.750000 Ru
0.750000 0.250000 0.250000 Ru
0.750000 0.250000 0.750000 Ru
0.750000 0.750000 0.750000 Ru
0.750000 0.750000 0.250000 Ru
