Zn1 Fe3 C1
1.0
  3.735161  0.000000  0.000000
  0.000000  3.735161  0.000000
  0.000000  0.000000  3.849495
Zn Fe C
1 3 1
direct
0.000000 0.000000 0.000000 Zn
0.500000 0.000000 0.500000 Fe
0.000000 0.500000 0.500000 Fe
0.500000 0.500000 0.000000 Fe
0.500000 0.500000 0.500000 C
