Ta4 Mn4 Ru8
1.0
  6.145146  0.000000  0.000000
  0.000000  6.145146  0.000000
  0.000000  0.000000  6.333250
Ta Mn Ru
4 4 8
direct
0.000000 0.000000 0.000000 Ta
0.000000 0.500000 0.500000 Ta
0.500000 0.000000 0.500000 Ta
0.500000 0.500000 0.000000 Ta
0.000000 0.000000 0.500000 Mn
0.000000 0.500000 0.000000 Mn
0.500000 0.000000 0.000000 Mn
0.500000 0.500000 0.500000 Mn
0.750000 0.250000 0.250000 Ru
0.750000 0.250000 0.750000 Ru
0.750000 0.750000 0.750000 Ru
0.750000 0.750000 0.250000 Ru
0.250000 0.250000 0.750000 Ru
0.250000 0.250000 0.250000 Ru
0.250000 0.750000 0.250000 Ru
0.250000 0.750000 0.750000 Ru
