Mn12 Si4 Ni8
1.0
  7.471705  0.000000  0.000000
  3.772276 -6.472219  0.000000
  3.773461 -2.178138 -6.290241
Mn Si Ni
12 4 8
direct
0.934790 0.434781 0.315208 Mn
0.684841 0.184840 0.065188 Mn
0.684780 0.565239 0.684785 Mn
0.065149 0.184848 0.684851 Mn
0.934781 0.815229 0.315222 Mn
0.315225 0.815218 0.934787 Mn
0.684796 0.565191 0.065199 Mn
0.065117 0.565161 0.684850 Mn
0.934715 0.815260 0.934753 Mn
0.315236 0.434767 0.934771 Mn
0.315273 0.434765 0.315236 Mn
0.065195 0.184779 0.065256 Mn
0.500043 0.999809 0.000207 Si
0.000254 0.999909 0.500000 Si
0.499949 0.500208 0.499810 Si
0.499848 0.999997 0.499901 Si
0.711136 0.866519 0.711175 Ni
0.366570 0.211115 0.711120 Ni
0.288961 0.133146 0.289066 Ni
0.633203 0.788971 0.288866 Ni
0.711183 0.211141 0.711108 Ni
0.288846 0.789059 0.633137 Ni
0.288967 0.788855 0.288979 Ni
0.711141 0.211193 0.366523 Ni
