Mn3 Ge1 C1
1.0
  3.755428  0.000000  0.000000
  0.000000  3.755428  0.000000
  0.000000  0.000000  3.870383
Mn Ge C
3 1 1
direct
0.500000 0.000000 0.500000 Mn
0.000000 0.500000 0.500000 Mn
0.500000 0.500000 0.000000 Mn
0.000000 0.000000 0.000000 Ge
0.500000 0.500000 0.500000 C
