Cr1 Pd3
1.0
  3.876265  0.000000  0.000000
  0.000000  3.876265  0.000000
  0.000000  0.000000  3.994918
Cr Pd
1 3
direct
0.000000 0.000000 0.000000 Cr
0.000000 0.500000 0.500000 Pd
0.500000 0.000000 0.500000 Pd
0.500000 0.500000 0.000000 Pd
