Co4 Si8
1.0
  5.304322  0.000000  0.000000
  0.000000  5.304322  0.000000
  0.000000  0.000000  5.466688
Co Si
4 8
direct
0.000000 0.000000 0.000000 Co
0.000000 0.500000 0.500000 Co
0.500000 0.000000 0.500000 Co
0.500000 0.500000 0.000000 Co
0.750000 0.250000 0.250000 Si
0.750000 0.250000 0.750000 Si
0.750000 0.750000 0.750000 Si
0.750000 0.750000 0.250000 Si
0.250000 0.250000 0.750000 Si
0.250000 0.250000 0.250000 Si
0.250000 0.750000 0.250000 Si
0.250000 0.750000 0.750000 Si
