Cr4 Ni8 Hg4
1.0
  6.060206  0.000000  0.000000
  0.000000  6.060206  0.000000
  0.000000  0.000000  6.245710
Cr Ni Hg
4 8 4
direct
0.000000 0.000000 0.500000 Cr
0.000000 0.500000 0.000000 Cr
0.500000 0.000000 0.000000 Cr
0.500000 0.500000 0.500000 Cr
0.000000 0.000000 0.000000 Ni
0.250000 0.750000 0.250000 Ni
0.000000 0.500000 0.500000 Ni
0.250000 0.250000 0.750000 Ni
0.500000 0.000000 0.500000 Ni
0.750000 0.750000 0.750000 Ni
0.500000 0.500000 0.000000 Ni
0.750000 0.250000 0.250000 Ni
0.250000 0.750000 0.750000 Hg
0.250000 0.250000 0.250000 Hg
0.750000 0.750000 0.250000 Hg
0.750000 0.250000 0.750000 Hg
