Fe3 Pd1
1.0
  3.693749  0.000000  0.000000
  0.000000  3.693749  0.000000
  0.000000  0.000000  3.806816
Fe Pd
3 1
direct
0.000000 0.500000 0.500000 Fe
0.500000 0.500000 0.000000 Fe
0.500000 0.000000 0.500000 Fe
0.000000 0.000000 0.000000 Pd
