Mn1 Al1
1.0
  2.918419  0.000000  0.000000
  0.000000  2.918419  0.000000
  0.000000  0.000000  3.007752
Mn Al
1 1
direct
0.500000 0.500000 0.500000 Mn
0.000000 0.000000 0.000000 Al
