Hf6 Fe16 Si7
1.0
 -7.986580  0.000000  0.000000
 -4.033053  6.916922  0.000000
 -4.033122  2.328542 -6.721357
Hf Fe Si
6 16 7
direct
0.205191 0.794895 0.794811 Hf
0.794900 0.205240 0.794613 Hf
0.205292 0.794654 0.205079 Hf
0.794663 0.205337 0.205223 Hf
0.794871 0.794668 0.205168 Hf
0.205247 0.205152 0.794598 Hf
0.621068 0.621004 0.621058 Fe
0.473667 0.175453 0.175493 Fe
0.378925 0.863216 0.378961 Fe
0.175408 0.175419 0.473814 Fe
0.175416 0.175431 0.175472 Fe
0.824567 0.526219 0.824576 Fe
0.621039 0.136917 0.621024 Fe
0.824582 0.824616 0.824588 Fe
0.824517 0.824550 0.526341 Fe
0.175415 0.473746 0.175470 Fe
0.621088 0.621025 0.136815 Fe
0.863262 0.378934 0.378934 Fe
0.378910 0.378940 0.863272 Fe
0.378918 0.378951 0.378949 Fe
0.526293 0.824563 0.824539 Fe
0.136711 0.621064 0.621114 Fe
0.499772 0.000122 0.500092 Si
0.499993 0.500052 0.999992 Si
0.500193 0.499855 0.499933 Si
0.999933 0.000179 0.500188 Si
0.500199 0.999924 0.999848 Si
0.000078 0.499722 0.499983 Si
0.999881 0.500149 0.000050 Si
