Hf8 Fe4 Os4
1.0
  6.354902  0.000000  0.000000
  0.000000  6.354902  0.000000
  0.000000  0.000000  6.549427
Hf Fe Os
8 4 4
direct
0.750000 0.250000 0.250000 Hf
0.250000 0.750000 0.750000 Hf
0.750000 0.750000 0.750000 Hf
0.250000 0.250000 0.250000 Hf
0.250000 0.250000 0.750000 Hf
0.750000 0.750000 0.250000 Hf
0.250000 0.750000 0.250000 Hf
0.750000 0.250000 0.750000 Hf
0.000000 0.000000 0.000000 Fe
0.000000 0.500000 0.500000 Fe
0.500000 0.000000 0.500000 Fe
0.500000 0.500000 0.000000 Fe
0.500000 0.500000 0.500000 Os
0.500000 0.000000 0.000000 Os
0.000000 0.500000 0.000000 Os
0.000000 0.000000 0.500000 Os
