Ni4 S8
1.0
 -5.536380  0.000000  0.000000
 -0.002312 -5.539132  0.000000
 -0.000225 -0.001171  5.745686
Ni S
4 8
direct
0.005322 0.004823 0.999711 Ni
0.505929 0.504646 0.995651 Ni
0.504476 0.002231 0.498996 Ni
0.002893 0.507016 0.496957 Ni
0.896832 0.397604 0.104402 S
0.397274 0.111701 0.890108 S
0.394866 0.394616 0.388666 S
0.895642 0.112996 0.605745 S
0.111455 0.612882 0.891110 S
0.611783 0.896776 0.103853 S
0.609627 0.609411 0.602385 S
0.110903 0.898299 0.392416 S
