Fe11 Si5
1.0
  5.514448  0.000000  0.000000
  0.000000  5.514448  0.000000
  0.000000  0.000000  5.683246
Fe Si
11 5
direct
0.252828 0.747172 0.747172 Fe
0.747172 0.252828 0.747172 Fe
0.747172 0.747172 0.747172 Fe
0.500000 0.000000 0.000000 Fe
0.000000 0.000000 0.500000 Fe
0.000000 0.500000 0.000000 Fe
0.747172 0.747172 0.252828 Fe
0.747172 0.252828 0.252828 Fe
0.252828 0.252828 0.747172 Fe
0.252828 0.747172 0.252828 Fe
0.252828 0.252828 0.252828 Fe
0.500000 0.500000 0.500000 Si
0.000000 0.500000 0.500000 Si
0.500000 0.000000 0.500000 Si
0.500000 0.500000 0.000000 Si
0.000000 0.000000 0.000000 Si
