Zr4 Ni8 Sb4
1.0
  6.258381  0.000000  0.000000
  0.000000  6.258381  0.000000
  0.000000  0.000000  6.449951
Zr Ni Sb
4 8 4
direct
0.500000 0.000000 0.000000 Zr
0.500000 0.500000 0.500000 Zr
0.000000 0.000000 0.500000 Zr
0.000000 0.500000 0.000000 Zr
0.250000 0.750000 0.250000 Ni
0.750000 0.750000 0.250000 Ni
0.250000 0.250000 0.750000 Ni
0.750000 0.250000 0.750000 Ni
0.750000 0.750000 0.750000 Ni
0.250000 0.750000 0.750000 Ni
0.750000 0.250000 0.250000 Ni
0.250000 0.250000 0.250000 Ni
0.000000 0.000000 0.000000 Sb
0.000000 0.500000 0.500000 Sb
0.500000 0.000000 0.500000 Sb
0.500000 0.500000 0.000000 Sb
