Nb4 Ni8 Sn4
1.0
  6.138947  0.000000  0.000000
  0.000000  6.138947  0.000000
  0.000000  0.000000  6.326862
Nb Ni Sn
4 8 4
direct
0.500000 0.000000 0.000000 Nb
0.500000 0.500000 0.500000 Nb
0.000000 0.000000 0.500000 Nb
0.000000 0.500000 0.000000 Nb
0.750000 0.250000 0.750000 Ni
0.750000 0.250000 0.250000 Ni
0.750000 0.750000 0.250000 Ni
0.750000 0.750000 0.750000 Ni
0.250000 0.250000 0.250000 Ni
0.250000 0.250000 0.750000 Ni
0.250000 0.750000 0.750000 Ni
0.250000 0.750000 0.250000 Ni
0.000000 0.000000 0.000000 Sn
0.000000 0.500000 0.500000 Sn
0.500000 0.000000 0.500000 Sn
0.500000 0.500000 0.000000 Sn
