Ti8 Fe4 Ir4
1.0
  6.061266  0.000000  0.000000
  0.000000  6.061266  0.000000
  0.000000  0.000000  6.246802
Ti Fe Ir
8 4 4
direct
0.750000 0.250000 0.250000 Ti
0.750000 0.250000 0.750000 Ti
0.750000 0.750000 0.750000 Ti
0.750000 0.750000 0.250000 Ti
0.250000 0.250000 0.750000 Ti
0.250000 0.250000 0.250000 Ti
0.250000 0.750000 0.250000 Ti
0.250000 0.750000 0.750000 Ti
0.000000 0.000000 0.500000 Fe
0.000000 0.500000 0.000000 Fe
0.500000 0.000000 0.000000 Fe
0.500000 0.500000 0.500000 Fe
0.500000 0.500000 0.000000 Ir
0.500000 0.000000 0.500000 Ir
0.000000 0.500000 0.500000 Ir
0.000000 0.000000 0.000000 Ir
