Hf8 Fe16
1.0
  6.924442  0.000000  0.000000
  0.000000  6.924442  0.000000
  0.000000  0.000000  7.136400
Hf Fe
8 16
direct
0.375000 0.875000 0.375000 Hf
0.125000 0.125000 0.125000 Hf
0.375000 0.375000 0.875000 Hf
0.125000 0.625000 0.625000 Hf
0.875000 0.875000 0.875000 Hf
0.625000 0.125000 0.625000 Hf
0.875000 0.375000 0.375000 Hf
0.625000 0.625000 0.125000 Hf
0.500000 0.000000 0.000000 Fe
0.000000 0.250000 0.750000 Fe
0.750000 0.250000 0.000000 Fe
0.250000 0.000000 0.750000 Fe
0.500000 0.500000 0.500000 Fe
0.000000 0.750000 0.250000 Fe
0.750000 0.750000 0.500000 Fe
0.250000 0.500000 0.250000 Fe
0.000000 0.000000 0.500000 Fe
0.500000 0.250000 0.250000 Fe
0.250000 0.250000 0.500000 Fe
0.750000 0.000000 0.250000 Fe
0.000000 0.500000 0.000000 Fe
0.500000 0.750000 0.750000 Fe
0.250000 0.750000 0.000000 Fe
0.750000 0.500000 0.750000 Fe
