Ti1 Mn2 Ga1
1.0
  4.284901  0.000000  0.000000
 -2.162368  3.715042  0.000000
 -0.001888 -2.499177  3.609511
Ti Mn Ga
1 2 1
direct
0.500047 0.249987 0.250022 Ti
0.999781 0.499911 0.500209 Mn
0.000229 0.000052 0.999730 Mn
0.499947 0.750047 0.750038 Ga
