Ta4 Co4 Sb4
1.0
  5.909123  0.000000  0.000000
  0.000000  5.909123  0.000000
  0.000000  0.000000  6.090002
Ta Co Sb
4 4 4
direct
0.000000 0.000000 0.000000 Ta
0.000000 0.500000 0.500000 Ta
0.500000 0.000000 0.500000 Ta
0.500000 0.500000 0.000000 Ta
0.250000 0.750000 0.750000 Co
0.250000 0.250000 0.250000 Co
0.750000 0.750000 0.250000 Co
0.750000 0.250000 0.750000 Co
0.000000 0.000000 0.500000 Sb
0.000000 0.500000 0.000000 Sb
0.500000 0.000000 0.000000 Sb
0.500000 0.500000 0.500000 Sb
