Mn4 Ga4 Pt8
1.0
  6.166671  0.000000  0.000000
  0.000000  6.166671  0.000000
  0.000000  0.000000  6.355434
Mn Ga Pt
4 4 8
direct
0.000000 0.000000 0.500000 Mn
0.000000 0.500000 0.000000 Mn
0.500000 0.000000 0.000000 Mn
0.500000 0.500000 0.500000 Mn
0.000000 0.000000 0.000000 Ga
0.000000 0.500000 0.500000 Ga
0.500000 0.000000 0.500000 Ga
0.500000 0.500000 0.000000 Ga
0.250000 0.750000 0.250000 Pt
0.250000 0.750000 0.750000 Pt
0.250000 0.250000 0.750000 Pt
0.250000 0.250000 0.250000 Pt
0.750000 0.750000 0.750000 Pt
0.750000 0.750000 0.250000 Pt
0.750000 0.250000 0.250000 Pt
0.750000 0.250000 0.750000 Pt
