Fe3 Pt1
1.0
  3.713345  0.000000  0.000000
  0.000000  3.713345  0.000000
  0.000000  0.000000  3.827012
Fe Pt
3 1
direct
0.000000 0.500000 0.500000 Fe
0.500000 0.500000 0.000000 Fe
0.500000 0.000000 0.500000 Fe
0.000000 0.000000 0.000000 Pt
