Li4 Mn4 Pt8
1.0
  6.024175  0.000000  0.000000
  0.000000  6.024175  0.000000
  0.000000  0.000000  6.208576
Li Mn Pt
4 4 8
direct
0.500000 0.000000 0.500000 Li
0.500000 0.500000 0.000000 Li
0.000000 0.000000 0.000000 Li
0.000000 0.500000 0.500000 Li
0.000000 0.500000 0.000000 Mn
0.000000 0.000000 0.500000 Mn
0.500000 0.500000 0.500000 Mn
0.500000 0.000000 0.000000 Mn
0.750000 0.750000 0.250000 Pt
0.250000 0.750000 0.250000 Pt
0.750000 0.250000 0.750000 Pt
0.250000 0.250000 0.750000 Pt
0.250000 0.750000 0.750000 Pt
0.750000 0.750000 0.750000 Pt
0.250000 0.250000 0.250000 Pt
0.750000 0.250000 0.250000 Pt
