Sc4 Co8 Sn4
1.0
  6.150477  0.000000  0.000000
  0.000000  6.150477  0.000000
  0.000000  0.000000  6.338744
Sc Co Sn
4 8 4
direct
0.000000 0.500000 0.000000 Sc
0.000000 0.000000 0.500000 Sc
0.500000 0.500000 0.500000 Sc
0.500000 0.000000 0.000000 Sc
0.250000 0.750000 0.750000 Co
0.750000 0.250000 0.250000 Co
0.250000 0.250000 0.250000 Co
0.750000 0.750000 0.750000 Co
0.750000 0.750000 0.250000 Co
0.250000 0.250000 0.750000 Co
0.750000 0.250000 0.750000 Co
0.250000 0.750000 0.250000 Co
0.000000 0.000000 0.000000 Sn
0.000000 0.500000 0.500000 Sn
0.500000 0.000000 0.500000 Sn
0.500000 0.500000 0.000000 Sn
