Zr8 Fe16
1.0
  6.979450  0.000000  0.000000
  0.000000  6.979450  0.000000
  0.000000  0.000000  7.193093
Zr Fe
8 16
direct
0.125000 0.125000 0.125000 Zr
0.875000 0.375000 0.375000 Zr
0.125000 0.625000 0.625000 Zr
0.875000 0.875000 0.875000 Zr
0.625000 0.125000 0.625000 Zr
0.375000 0.375000 0.875000 Zr
0.625000 0.625000 0.125000 Zr
0.375000 0.875000 0.375000 Zr
0.750000 0.000000 0.250000 Fe
0.000000 0.000000 0.500000 Fe
0.000000 0.250000 0.750000 Fe
0.750000 0.250000 0.000000 Fe
0.750000 0.500000 0.750000 Fe
0.000000 0.500000 0.000000 Fe
0.000000 0.750000 0.250000 Fe
0.750000 0.750000 0.500000 Fe
0.250000 0.000000 0.750000 Fe
0.500000 0.000000 0.000000 Fe
0.500000 0.250000 0.250000 Fe
0.250000 0.250000 0.500000 Fe
0.250000 0.500000 0.250000 Fe
0.500000 0.500000 0.500000 Fe
0.500000 0.750000 0.750000 Fe
0.250000 0.750000 0.000000 Fe
