Ti4 Mn8 Si4
1.0
  5.724671  0.000000  0.000000
  0.000000  5.724671  0.000000
  0.000000  0.000000  5.899904
Ti Mn Si
4 8 4
direct
0.000000 0.000000 0.000000 Ti
0.000000 0.500000 0.500000 Ti
0.500000 0.000000 0.500000 Ti
0.500000 0.500000 0.000000 Ti
0.750000 0.250000 0.250000 Mn
0.750000 0.250000 0.750000 Mn
0.750000 0.750000 0.750000 Mn
0.750000 0.750000 0.250000 Mn
0.250000 0.250000 0.750000 Mn
0.250000 0.250000 0.250000 Mn
0.250000 0.750000 0.250000 Mn
0.250000 0.750000 0.750000 Mn
0.500000 0.500000 0.500000 Si
0.500000 0.000000 0.000000 Si
0.000000 0.500000 0.000000 Si
0.000000 0.000000 0.500000 Si
