Mn4 Al4 Cu8
1.0
  5.862382  0.000000  0.000000
  0.000000  5.862382  0.000000
  0.000000  0.000000  6.041830
Mn Al Cu
4 4 8
direct
0.000000 0.000000 0.500000 Mn
0.000000 0.500000 0.000000 Mn
0.500000 0.000000 0.000000 Mn
0.500000 0.500000 0.500000 Mn
0.000000 0.000000 0.000000 Al
0.000000 0.500000 0.500000 Al
0.500000 0.000000 0.500000 Al
0.500000 0.500000 0.000000 Al
0.750000 0.250000 0.250000 Cu
0.750000 0.250000 0.750000 Cu
0.750000 0.750000 0.750000 Cu
0.750000 0.750000 0.250000 Cu
0.250000 0.250000 0.750000 Cu
0.250000 0.250000 0.250000 Cu
0.250000 0.750000 0.250000 Cu
0.250000 0.750000 0.750000 Cu
