Be4 Co8 Si4
1.0
  5.315620  0.000000  0.000000
  0.000000  5.315620  0.000000
  0.000000  0.000000  5.478332
Be Co Si
4 8 4
direct
0.000000 0.000000 0.000000 Be
0.000000 0.500000 0.500000 Be
0.500000 0.000000 0.500000 Be
0.500000 0.500000 0.000000 Be
0.250000 0.750000 0.250000 Co
0.250000 0.750000 0.750000 Co
0.250000 0.250000 0.750000 Co
0.250000 0.250000 0.250000 Co
0.750000 0.750000 0.750000 Co
0.750000 0.750000 0.250000 Co
0.750000 0.250000 0.250000 Co
0.750000 0.250000 0.750000 Co
0.000000 0.000000 0.500000 Si
0.000000 0.500000 0.000000 Si
0.500000 0.000000 0.000000 Si
0.500000 0.500000 0.500000 Si
