Mn4 Sb4 Rh4
1.0
  6.047670  0.000000  0.000000
  0.000000  6.047670  0.000000
  0.000000  0.000000  6.232791
Mn Sb Rh
4 4 4
direct
0.000000 0.000000 0.500000 Mn
0.000000 0.500000 0.000000 Mn
0.500000 0.000000 0.000000 Mn
0.500000 0.500000 0.500000 Mn
0.000000 0.000000 0.000000 Sb
0.000000 0.500000 0.500000 Sb
0.500000 0.000000 0.500000 Sb
0.500000 0.500000 0.000000 Sb
0.750000 0.250000 0.250000 Rh
0.750000 0.750000 0.750000 Rh
0.250000 0.250000 0.750000 Rh
0.250000 0.750000 0.250000 Rh
