Mn4 Sb4 Au4
1.0
  6.395651  0.000000  0.000000
  0.000000  6.395651  0.000000
  0.000000  0.000000  6.591423
Mn Sb Au
4 4 4
direct
0.000000 0.000000 0.000000 Mn
0.000000 0.500000 0.500000 Mn
0.500000 0.000000 0.500000 Mn
0.500000 0.500000 0.000000 Mn
0.500000 0.500000 0.500000 Sb
0.500000 0.000000 0.000000 Sb
0.000000 0.500000 0.000000 Sb
0.000000 0.000000 0.500000 Sb
0.250000 0.750000 0.750000 Au
0.250000 0.250000 0.250000 Au
0.750000 0.750000 0.250000 Au
0.750000 0.250000 0.750000 Au
