Mn1 Tl1 Cl3
1.0
  5.018580  0.000000  0.000000
  0.000000  5.018580  0.000000
  0.000000  0.000000  5.172200
Mn Tl Cl
1 1 3
direct
0.500000 0.500000 0.500000 Mn
0.000000 0.000000 0.000000 Tl
0.000000 0.500000 0.500000 Cl
0.500000 0.500000 0.000000 Cl
0.500000 0.000000 0.500000 Cl
