Sc1 Co3 C1
1.0
  3.773444  0.000000  0.000000
  0.000000  3.773444  0.000000
  0.000000  0.000000  3.888950
Sc Co C
1 3 1
direct
0.000000 0.000000 0.000000 Sc
0.000000 0.500000 0.500000 Co
0.500000 0.000000 0.500000 Co
0.500000 0.500000 0.000000 Co
0.500000 0.500000 0.500000 C
