Mn4 Al4 Pt8
1.0
  6.140332  0.000000  0.000000
  0.000000  6.140332  0.000000
  0.000000  0.000000  6.328289
Mn Al Pt
4 4 8
direct
0.000000 0.000000 0.500000 Mn
0.000000 0.500000 0.000000 Mn
0.500000 0.000000 0.000000 Mn
0.500000 0.500000 0.500000 Mn
0.000000 0.000000 0.000000 Al
0.000000 0.500000 0.500000 Al
0.500000 0.000000 0.500000 Al
0.500000 0.500000 0.000000 Al
0.250000 0.750000 0.750000 Pt
0.750000 0.250000 0.250000 Pt
0.250000 0.250000 0.250000 Pt
0.750000 0.750000 0.750000 Pt
0.750000 0.750000 0.250000 Pt
0.250000 0.250000 0.750000 Pt
0.750000 0.250000 0.750000 Pt
0.250000 0.750000 0.250000 Pt
