Mn4 Ni4 Sb4
1.0
  5.846987  0.000000  0.000000
  0.000000  5.846987  0.000000
  0.000000  0.000000  6.025964
Mn Ni Sb
4 4 4
direct
0.250000 0.750000 0.750000 Mn
0.250000 0.250000 0.250000 Mn
0.750000 0.750000 0.250000 Mn
0.750000 0.250000 0.750000 Mn
0.000000 0.000000 0.000000 Ni
0.000000 0.500000 0.500000 Ni
0.500000 0.000000 0.500000 Ni
0.500000 0.500000 0.000000 Ni
0.750000 0.250000 0.250000 Sb
0.750000 0.750000 0.750000 Sb
0.250000 0.250000 0.750000 Sb
0.250000 0.750000 0.250000 Sb
