Nb4 Al4 Ni8
1.0
  5.935593  0.000000  0.000000
  0.000000  5.935593  0.000000
  0.000000  0.000000  6.117282
Nb Al Ni
4 4 8
direct
0.000000 0.500000 0.000000 Nb
0.000000 0.000000 0.500000 Nb
0.500000 0.500000 0.500000 Nb
0.500000 0.000000 0.000000 Nb
0.000000 0.000000 0.000000 Al
0.000000 0.500000 0.500000 Al
0.500000 0.000000 0.500000 Al
0.500000 0.500000 0.000000 Al
0.250000 0.750000 0.750000 Ni
0.750000 0.250000 0.250000 Ni
0.250000 0.250000 0.250000 Ni
0.750000 0.750000 0.750000 Ni
0.750000 0.750000 0.250000 Ni
0.250000 0.250000 0.750000 Ni
0.750000 0.250000 0.750000 Ni
0.250000 0.750000 0.250000 Ni
