Al8 Fe4 Co4
1.0
  5.666481  0.000000  0.000000
  0.000000  5.666481  0.000000
  0.000000  0.000000  5.839933
Al Fe Co
8 4 4
direct
0.750000 0.250000 0.750000 Al
0.750000 0.250000 0.250000 Al
0.750000 0.750000 0.250000 Al
0.750000 0.750000 0.750000 Al
0.250000 0.250000 0.250000 Al
0.250000 0.250000 0.750000 Al
0.250000 0.750000 0.750000 Al
0.250000 0.750000 0.250000 Al
0.000000 0.000000 0.000000 Fe
0.000000 0.500000 0.500000 Fe
0.500000 0.000000 0.500000 Fe
0.500000 0.500000 0.000000 Fe
0.500000 0.500000 0.500000 Co
0.500000 0.000000 0.000000 Co
0.000000 0.500000 0.000000 Co
0.000000 0.000000 0.500000 Co
