Mg4 Ni8 Sb4
1.0
  6.106352  0.000000  0.000000
  0.000000  6.106352  0.000000
  0.000000  0.000000  6.293268
Mg Ni Sb
4 8 4
direct
0.000000 0.000000 0.000000 Mg
0.000000 0.500000 0.500000 Mg
0.500000 0.000000 0.500000 Mg
0.500000 0.500000 0.000000 Mg
0.250000 0.750000 0.750000 Ni
0.750000 0.250000 0.250000 Ni
0.250000 0.250000 0.250000 Ni
0.750000 0.750000 0.750000 Ni
0.750000 0.750000 0.250000 Ni
0.250000 0.250000 0.750000 Ni
0.750000 0.250000 0.750000 Ni
0.250000 0.750000 0.250000 Ni
0.500000 0.500000 0.500000 Sb
0.500000 0.000000 0.000000 Sb
0.000000 0.500000 0.000000 Sb
0.000000 0.000000 0.500000 Sb
