Mg4 Ga4 Ni8
1.0
  5.852296  0.000000  0.000000
  0.000000  5.852296  0.000000
  0.000000  0.000000  6.031436
Mg Ga Ni
4 4 8
direct
0.000000 0.000000 0.000000 Mg
0.000000 0.500000 0.500000 Mg
0.500000 0.000000 0.500000 Mg
0.500000 0.500000 0.000000 Mg
0.500000 0.500000 0.500000 Ga
0.500000 0.000000 0.000000 Ga
0.000000 0.500000 0.000000 Ga
0.000000 0.000000 0.500000 Ga
0.750000 0.250000 0.750000 Ni
0.750000 0.250000 0.250000 Ni
0.750000 0.750000 0.250000 Ni
0.750000 0.750000 0.750000 Ni
0.250000 0.250000 0.250000 Ni
0.250000 0.250000 0.750000 Ni
0.250000 0.750000 0.750000 Ni
0.250000 0.750000 0.250000 Ni
