Sc8 Ni4 Ir4
1.0
  6.352415  0.000000  0.000000
  0.000000  6.352415  0.000000
  0.000000  0.000000  6.546864
Sc Ni Ir
8 4 4
direct
0.750000 0.250000 0.250000 Sc
0.750000 0.250000 0.750000 Sc
0.750000 0.750000 0.750000 Sc
0.750000 0.750000 0.250000 Sc
0.250000 0.250000 0.750000 Sc
0.250000 0.250000 0.250000 Sc
0.250000 0.750000 0.250000 Sc
0.250000 0.750000 0.750000 Sc
0.000000 0.000000 0.000000 Ni
0.000000 0.500000 0.500000 Ni
0.500000 0.000000 0.500000 Ni
0.500000 0.500000 0.000000 Ni
0.500000 0.500000 0.500000 Ir
0.500000 0.000000 0.000000 Ir
0.000000 0.500000 0.000000 Ir
0.000000 0.000000 0.500000 Ir
