Mn4 Ga4 Co8
1.0
  5.668511  0.000000  0.000000
  0.000000  5.668511  0.000000
  0.000000  0.000000  5.842025
Mn Ga Co
4 4 8
direct
0.000000 0.500000 0.000000 Mn
0.000000 0.000000 0.500000 Mn
0.500000 0.500000 0.500000 Mn
0.500000 0.000000 0.000000 Mn
0.000000 0.500000 0.500000 Ga
0.000000 0.000000 0.000000 Ga
0.500000 0.500000 0.000000 Ga
0.500000 0.000000 0.500000 Ga
0.250000 0.250000 0.750000 Co
0.250000 0.250000 0.250000 Co
0.250000 0.750000 0.250000 Co
0.250000 0.750000 0.750000 Co
0.750000 0.250000 0.250000 Co
0.750000 0.250000 0.750000 Co
0.750000 0.750000 0.750000 Co
0.750000 0.750000 0.250000 Co
