Ti8 Tc4 Ni4
1.0
  6.037302  0.000000  0.000000
  0.000000  6.037302  0.000000
  0.000000  0.000000  6.222105
Ti Tc Ni
8 4 4
direct
0.250000 0.250000 0.250000 Ti
0.250000 0.250000 0.750000 Ti
0.250000 0.750000 0.750000 Ti
0.250000 0.750000 0.250000 Ti
0.750000 0.250000 0.750000 Ti
0.750000 0.250000 0.250000 Ti
0.750000 0.750000 0.250000 Ti
0.750000 0.750000 0.750000 Ti
0.000000 0.500000 0.000000 Tc
0.000000 0.000000 0.500000 Tc
0.500000 0.500000 0.500000 Tc
0.500000 0.000000 0.000000 Tc
0.000000 0.500000 0.500000 Ni
0.000000 0.000000 0.000000 Ni
0.500000 0.500000 0.000000 Ni
0.500000 0.000000 0.500000 Ni
