Co4 Re4 Ge8
1.0
  6.074789  0.000000  0.000000
  0.000000  6.074789  0.000000
  0.000000  0.000000  6.260740
Co Re Ge
4 4 8
direct
0.000000 0.000000 0.500000 Co
0.000000 0.500000 0.000000 Co
0.500000 0.000000 0.000000 Co
0.500000 0.500000 0.500000 Co
0.750000 0.250000 0.750000 Re
0.750000 0.750000 0.250000 Re
0.250000 0.250000 0.250000 Re
0.250000 0.750000 0.750000 Re
0.000000 0.000000 0.000000 Ge
0.750000 0.250000 0.250000 Ge
0.000000 0.500000 0.500000 Ge
0.750000 0.750000 0.750000 Ge
0.500000 0.000000 0.500000 Ge
0.250000 0.250000 0.750000 Ge
0.500000 0.500000 0.000000 Ge
0.250000 0.750000 0.250000 Ge
