Fe3 Pt1 N1
1.0
  4.644033  0.000000  0.000000
  0.000000  4.644033  0.000000
  0.000000  0.000000  4.786187
Fe Pt N
3 1 1
direct
0.000000 0.500000 0.500000 Fe
0.500000 0.500000 0.000000 Fe
0.500000 0.000000 0.500000 Fe
0.500000 0.500000 0.500000 Pt
0.000000 0.000000 0.000000 N
