Ti8 Co4 Tc4
1.0
  6.008028  0.000000  0.000000
  0.000000  6.008028  0.000000
  0.000000  0.000000  6.191934
Ti Co Tc
8 4 4
direct
0.250000 0.250000 0.750000 Ti
0.250000 0.750000 0.750000 Ti
0.250000 0.750000 0.250000 Ti
0.250000 0.250000 0.250000 Ti
0.750000 0.250000 0.250000 Ti
0.750000 0.750000 0.250000 Ti
0.750000 0.750000 0.750000 Ti
0.750000 0.250000 0.750000 Ti
0.000000 0.500000 0.000000 Co
0.000000 0.000000 0.500000 Co
0.500000 0.500000 0.500000 Co
0.500000 0.000000 0.000000 Co
0.500000 0.000000 0.500000 Tc
0.500000 0.500000 0.000000 Tc
0.000000 0.000000 0.000000 Tc
0.000000 0.500000 0.500000 Tc
