Ti8 Mn4 Co4
1.0
  5.878623  0.000000  0.000000
  0.000000  5.878623  0.000000
  0.000000  0.000000  6.058569
Ti Mn Co
8 4 4
direct
0.250000 0.750000 0.750000 Ti
0.250000 0.750000 0.250000 Ti
0.250000 0.250000 0.250000 Ti
0.250000 0.250000 0.750000 Ti
0.750000 0.750000 0.250000 Ti
0.750000 0.750000 0.750000 Ti
0.750000 0.250000 0.750000 Ti
0.750000 0.250000 0.250000 Ti
0.000000 0.000000 0.500000 Mn
0.000000 0.500000 0.000000 Mn
0.500000 0.000000 0.000000 Mn
0.500000 0.500000 0.500000 Mn
0.000000 0.000000 0.000000 Co
0.000000 0.500000 0.500000 Co
0.500000 0.000000 0.500000 Co
0.500000 0.500000 0.000000 Co
