Sc4 Ni4 Bi4
1.0
  6.193329  0.000000  0.000000
  0.000000  6.193329  0.000000
  0.000000  0.000000  6.382908
Sc Ni Bi
4 4 4
direct
0.000000 0.000000 0.500000 Sc
0.000000 0.500000 0.000000 Sc
0.500000 0.000000 0.000000 Sc
0.500000 0.500000 0.500000 Sc
0.250000 0.750000 0.750000 Ni
0.250000 0.250000 0.250000 Ni
0.750000 0.750000 0.250000 Ni
0.750000 0.250000 0.750000 Ni
0.000000 0.000000 0.000000 Bi
0.000000 0.500000 0.500000 Bi
0.500000 0.000000 0.500000 Bi
0.500000 0.500000 0.000000 Bi
