Ni12 Sn4
1.0
  5.863562  0.000000  0.000000
  0.000000  5.863562  0.000000
  0.000000  0.000000  6.043047
Ni Sn
12 4
direct
0.500000 0.000000 0.000000 Ni
0.250000 0.750000 0.750000 Ni
0.750000 0.750000 0.750000 Ni
0.500000 0.500000 0.500000 Ni
0.250000 0.250000 0.250000 Ni
0.750000 0.250000 0.250000 Ni
0.000000 0.000000 0.500000 Ni
0.750000 0.750000 0.250000 Ni
0.250000 0.750000 0.250000 Ni
0.000000 0.500000 0.000000 Ni
0.750000 0.250000 0.750000 Ni
0.250000 0.250000 0.750000 Ni
0.000000 0.000000 0.000000 Sn
0.000000 0.500000 0.500000 Sn
0.500000 0.000000 0.500000 Sn
0.500000 0.500000 0.000000 Sn
