Ti4 Fe4 Se4
1.0
  5.563128  0.000000  0.000000
  0.000000  5.563128  0.000000
  0.000000  0.000000  5.733416
Ti Fe Se
4 4 4
direct
0.500000 0.000000 0.000000 Ti
0.500000 0.500000 0.500000 Ti
0.000000 0.000000 0.500000 Ti
0.000000 0.500000 0.000000 Ti
0.750000 0.250000 0.250000 Fe
0.750000 0.750000 0.750000 Fe
0.250000 0.250000 0.750000 Fe
0.250000 0.750000 0.250000 Fe
0.000000 0.000000 0.000000 Se
0.000000 0.500000 0.500000 Se
0.500000 0.000000 0.500000 Se
0.500000 0.500000 0.000000 Se
