Ti4 Co4 As4
1.0
  5.778285  0.000000  0.000000
  0.000000  5.778285  0.000000
  0.000000  0.000000  5.955160
Ti Co As
4 4 4
direct
0.750000 0.250000 0.250000 Ti
0.750000 0.750000 0.750000 Ti
0.250000 0.250000 0.750000 Ti
0.250000 0.750000 0.250000 Ti
0.000000 0.000000 0.500000 Co
0.000000 0.500000 0.000000 Co
0.500000 0.000000 0.000000 Co
0.500000 0.500000 0.500000 Co
0.000000 0.000000 0.000000 As
0.000000 0.500000 0.500000 As
0.500000 0.000000 0.500000 As
0.500000 0.500000 0.000000 As
