Zr4 Zn4 Ni16
1.0
  6.711121  0.000000  0.000000
  0.000000  6.711121  0.000000
  0.000000  0.000000  6.916549
Zr Zn Ni
4 4 16
direct
0.000000 0.000000 0.000000 Zr
0.000000 0.500000 0.500000 Zr
0.500000 0.000000 0.500000 Zr
0.500000 0.500000 0.000000 Zr
0.250000 0.750000 0.750000 Zn
0.250000 0.250000 0.250000 Zn
0.750000 0.750000 0.250000 Zn
0.750000 0.250000 0.750000 Zn
0.875797 0.124203 0.375797 Ni
0.624203 0.124203 0.124203 Ni
0.624203 0.375797 0.375797 Ni
0.875797 0.375797 0.124203 Ni
0.875797 0.624203 0.875797 Ni
0.624203 0.624203 0.624203 Ni
0.624203 0.875797 0.875797 Ni
0.875797 0.875797 0.624203 Ni
0.375797 0.124203 0.875797 Ni
0.124203 0.124203 0.624203 Ni
0.124203 0.375797 0.875797 Ni
0.375797 0.375797 0.624203 Ni
0.375797 0.624203 0.375797 Ni
0.124203 0.624203 0.124203 Ni
0.124203 0.875797 0.375797 Ni
0.375797 0.875797 0.124203 Ni
