Al4 Fe8 Mo4
1.0
  5.802113  0.000000  0.000000
  0.000000  5.802113  0.000000
  0.000000  0.000000  5.979716
Al Fe Mo
4 8 4
direct
0.000000 0.000000 0.000000 Al
0.000000 0.500000 0.500000 Al
0.500000 0.000000 0.500000 Al
0.500000 0.500000 0.000000 Al
0.750000 0.750000 0.250000 Fe
0.250000 0.250000 0.750000 Fe
0.750000 0.250000 0.750000 Fe
0.250000 0.750000 0.250000 Fe
0.250000 0.750000 0.750000 Fe
0.750000 0.250000 0.250000 Fe
0.250000 0.250000 0.250000 Fe
0.750000 0.750000 0.750000 Fe
0.500000 0.000000 0.000000 Mo
0.500000 0.500000 0.500000 Mo
0.000000 0.000000 0.500000 Mo
0.000000 0.500000 0.000000 Mo
