Co8 As24
1.0
  8.187746  0.000000  0.000000
  0.000000  8.187746  0.000000
  0.000000  0.000000  8.438375
Co As
8 24
direct
0.250000 0.750000 0.750000 Co
0.750000 0.750000 0.250000 Co
0.750000 0.250000 0.750000 Co
0.750000 0.750000 0.750000 Co
0.750000 0.250000 0.250000 Co
0.250000 0.250000 0.750000 Co
0.250000 0.750000 0.250000 Co
0.250000 0.250000 0.250000 Co
0.151985 0.000000 0.658793 As
0.341207 0.848015 0.000000 As
0.848015 0.000000 0.658793 As
0.151985 0.000000 0.341207 As
0.341207 0.151985 0.000000 As
0.000000 0.658793 0.151985 As
0.000000 0.341207 0.848015 As
0.000000 0.658793 0.848015 As
0.658793 0.848015 0.000000 As
0.848015 0.000000 0.341207 As
0.658793 0.151985 0.000000 As
0.000000 0.341207 0.151985 As
0.651985 0.500000 0.158793 As
0.841207 0.348015 0.500000 As
0.348015 0.500000 0.158793 As
0.651985 0.500000 0.841207 As
0.841207 0.651985 0.500000 As
0.500000 0.158793 0.651985 As
0.500000 0.841207 0.348015 As
0.500000 0.158793 0.348015 As
0.158793 0.348015 0.500000 As
0.348015 0.500000 0.841207 As
0.158793 0.651985 0.500000 As
0.500000 0.841207 0.651985 As
