Mn4 Sb4 Pd8
1.0
  6.414244  0.000000  0.000000
  0.000000  6.414244  0.000000
  0.000000  0.000000  6.610585
Mn Sb Pd
4 4 8
direct
0.000000 0.000000 0.000000 Mn
0.000000 0.500000 0.500000 Mn
0.500000 0.000000 0.500000 Mn
0.500000 0.500000 0.000000 Mn
0.500000 0.000000 0.000000 Sb
0.500000 0.500000 0.500000 Sb
0.000000 0.000000 0.500000 Sb
0.000000 0.500000 0.000000 Sb
0.750000 0.250000 0.750000 Pd
0.250000 0.250000 0.750000 Pd
0.750000 0.750000 0.250000 Pd
0.250000 0.750000 0.250000 Pd
0.250000 0.250000 0.250000 Pd
0.750000 0.250000 0.250000 Pd
0.250000 0.750000 0.750000 Pd
0.750000 0.750000 0.750000 Pd
