Hf8 Cr16
1.0
  7.023799  0.000000  0.000000
  0.000000  7.023799  0.000000
  0.000000  0.000000  7.238798
Hf Cr
8 16
direct
0.625000 0.125000 0.625000 Hf
0.875000 0.875000 0.875000 Hf
0.625000 0.625000 0.125000 Hf
0.875000 0.375000 0.375000 Hf
0.125000 0.125000 0.125000 Hf
0.375000 0.875000 0.375000 Hf
0.125000 0.625000 0.625000 Hf
0.375000 0.375000 0.875000 Hf
0.250000 0.000000 0.750000 Cr
0.000000 0.000000 0.500000 Cr
0.750000 0.250000 0.000000 Cr
0.000000 0.250000 0.750000 Cr
0.250000 0.500000 0.250000 Cr
0.000000 0.500000 0.000000 Cr
0.750000 0.750000 0.500000 Cr
0.000000 0.750000 0.250000 Cr
0.750000 0.000000 0.250000 Cr
0.500000 0.000000 0.000000 Cr
0.250000 0.250000 0.500000 Cr
0.500000 0.250000 0.250000 Cr
0.750000 0.500000 0.750000 Cr
0.500000 0.500000 0.500000 Cr
0.250000 0.750000 0.000000 Cr
0.500000 0.750000 0.750000 Cr
