Mn4 Al4 Ru8
1.0
  5.926153  0.000000  0.000000
  0.000000  5.926153  0.000000
  0.000000  0.000000  6.107553
Mn Al Ru
4 4 8
direct
0.000000 0.000000 0.500000 Mn
0.000000 0.500000 0.000000 Mn
0.500000 0.000000 0.000000 Mn
0.500000 0.500000 0.500000 Mn
0.500000 0.500000 0.000000 Al
0.500000 0.000000 0.500000 Al
0.000000 0.500000 0.500000 Al
0.000000 0.000000 0.000000 Al
0.250000 0.250000 0.250000 Ru
0.250000 0.250000 0.750000 Ru
0.250000 0.750000 0.750000 Ru
0.250000 0.750000 0.250000 Ru
0.750000 0.250000 0.750000 Ru
0.750000 0.250000 0.250000 Ru
0.750000 0.750000 0.250000 Ru
0.750000 0.750000 0.750000 Ru
