Co8 Mo12 N4
1.0
  6.601239  0.000000  0.000000
  0.000000  6.601239  0.000000
  0.000000  0.000000  6.803304
Co Mo N
8 12 4
direct
0.069010 0.069010 0.069010 Co
0.319010 0.180990 0.819010 Co
0.819010 0.319010 0.180990 Co
0.180990 0.819010 0.319010 Co
0.430990 0.930990 0.569010 Co
0.569010 0.430990 0.930990 Co
0.930990 0.569010 0.430990 Co
0.680990 0.680990 0.680990 Co
0.125000 0.201401 0.451401 Mo
0.375000 0.798599 0.951401 Mo
0.875000 0.701401 0.048599 Mo
0.201401 0.451401 0.125000 Mo
0.798599 0.951401 0.375000 Mo
0.048599 0.875000 0.701401 Mo
0.451401 0.125000 0.201401 Mo
0.298599 0.548599 0.625000 Mo
0.951401 0.375000 0.798599 Mo
0.548599 0.625000 0.298599 Mo
0.701401 0.048599 0.875000 Mo
0.625000 0.298599 0.548599 Mo
0.375000 0.375000 0.375000 N
0.625000 0.875000 0.125000 N
0.125000 0.625000 0.875000 N
0.875000 0.125000 0.625000 N
