Co4 N4
1.0
  4.213910  0.000000  0.000000
  0.000000  4.213910  0.000000
  0.000000  0.000000  4.342899
Co N
4 4
direct
0.000000 0.000000 0.000000 Co
0.000000 0.500000 0.500000 Co
0.500000 0.000000 0.500000 Co
0.500000 0.500000 0.000000 Co
0.250000 0.750000 0.750000 N
0.250000 0.250000 0.250000 N
0.750000 0.750000 0.250000 N
0.750000 0.250000 0.750000 N
