Al4 Cr4 Ru8
1.0
  5.921258  0.000000  0.000000
  0.000000  5.921258  0.000000
  0.000000  0.000000  6.102509
Al Cr Ru
4 4 8
direct
0.000000 0.500000 0.500000 Al
0.000000 0.000000 0.000000 Al
0.500000 0.500000 0.000000 Al
0.500000 0.000000 0.500000 Al
0.000000 0.500000 0.000000 Cr
0.000000 0.000000 0.500000 Cr
0.500000 0.500000 0.500000 Cr
0.500000 0.000000 0.000000 Cr
0.250000 0.250000 0.250000 Ru
0.250000 0.250000 0.750000 Ru
0.250000 0.750000 0.750000 Ru
0.250000 0.750000 0.250000 Ru
0.750000 0.250000 0.750000 Ru
0.750000 0.250000 0.250000 Ru
0.750000 0.750000 0.250000 Ru
0.750000 0.750000 0.750000 Ru
