Hf4 Ni20
1.0
  6.594393  0.000000  0.000000
  0.000000  6.594393  0.000000
  0.000000  0.000000  6.796248
Hf Ni
4 20
direct
0.000000 0.000000 0.000000 Hf
0.000000 0.500000 0.500000 Hf
0.500000 0.000000 0.500000 Hf
0.500000 0.500000 0.000000 Hf
0.875828 0.375828 0.124172 Ni
0.624172 0.124172 0.124172 Ni
0.250000 0.750000 0.750000 Ni
0.624172 0.375828 0.375828 Ni
0.875828 0.124172 0.375828 Ni
0.875828 0.875828 0.624172 Ni
0.624172 0.624172 0.624172 Ni
0.250000 0.250000 0.250000 Ni
0.624172 0.875828 0.875828 Ni
0.875828 0.624172 0.875828 Ni
0.375828 0.375828 0.624172 Ni
0.124172 0.124172 0.624172 Ni
0.750000 0.750000 0.250000 Ni
0.124172 0.375828 0.875828 Ni
0.375828 0.124172 0.875828 Ni
0.375828 0.875828 0.124172 Ni
0.124172 0.624172 0.124172 Ni
0.750000 0.250000 0.750000 Ni
0.124172 0.875828 0.375828 Ni
0.375828 0.624172 0.375828 Ni
