Fe4 Ge4
1.0
  4.623910  0.000000  0.000000
  0.000000  4.623910  0.000000
  0.000000  0.000000  4.765448
Fe Ge
4 4
direct
0.135712 0.135712 0.135712 Fe
0.364288 0.864288 0.635712 Fe
0.635712 0.364288 0.864288 Fe
0.864288 0.635712 0.364288 Fe
0.842084 0.842084 0.842084 Ge
0.657916 0.157916 0.342084 Ge
0.342084 0.657916 0.157916 Ge
0.157916 0.342084 0.657916 Ge
