Ca4 Mg4 Ni16
1.0
  6.926049  0.000000  0.000000
  0.000000  6.926049  0.000000
  0.000000  0.000000  7.138056
Ca Mg Ni
4 4 16
direct
0.000000 0.000000 0.000000 Ca
0.000000 0.500000 0.500000 Ca
0.500000 0.000000 0.500000 Ca
0.500000 0.500000 0.000000 Ca
0.750000 0.250000 0.750000 Mg
0.750000 0.750000 0.250000 Mg
0.250000 0.250000 0.250000 Mg
0.250000 0.750000 0.750000 Mg
0.124298 0.875702 0.375702 Ni
0.375702 0.124298 0.875702 Ni
0.124298 0.124298 0.624298 Ni
0.375702 0.875702 0.124298 Ni
0.124298 0.375702 0.875702 Ni
0.375702 0.624298 0.375702 Ni
0.124298 0.624298 0.124298 Ni
0.375702 0.375702 0.624298 Ni
0.624298 0.875702 0.875702 Ni
0.875702 0.124298 0.375702 Ni
0.624298 0.124298 0.124298 Ni
0.875702 0.875702 0.624298 Ni
0.624298 0.375702 0.375702 Ni
0.875702 0.624298 0.875702 Ni
0.624298 0.624298 0.624298 Ni
0.875702 0.375702 0.124298 Ni
