Cr2 N2
1.0
  2.914939  0.000000  0.000000
  0.000000  2.916416  0.000000
  0.000000  0.000000  4.234481
Cr N
2 2
direct
0.754320 0.750000 0.750000 Cr
0.245680 0.250000 0.250000 Cr
0.746811 0.750000 0.250000 N
0.253189 0.250000 0.750000 N
