Ni4 As4 S4
1.0
  5.638945  0.000000  0.000000
  0.000000  5.638945  0.000000
  0.000000  0.000000  5.811554
Ni As S
4 4 4
direct
0.493064 0.506936 0.006936 Ni
0.506936 0.006936 0.493064 Ni
0.993064 0.993064 0.993064 Ni
0.006936 0.493064 0.506936 Ni
0.379190 0.120810 0.879190 As
0.879190 0.379190 0.120810 As
0.620810 0.620810 0.620810 As
0.120810 0.879190 0.379190 As
0.615870 0.884130 0.115870 S
0.115870 0.615870 0.884130 S
0.884130 0.115870 0.615870 S
0.384130 0.384130 0.384130 S
