Fe4 Si4 Ru8
1.0
  5.856718  0.000000  0.000000
  0.000000  5.856718  0.000000
  0.000000  0.000000  6.035993
Fe Si Ru
4 4 8
direct
0.000000 0.000000 0.000000 Fe
0.000000 0.500000 0.500000 Fe
0.500000 0.000000 0.500000 Fe
0.500000 0.500000 0.000000 Fe
0.000000 0.000000 0.500000 Si
0.000000 0.500000 0.000000 Si
0.500000 0.000000 0.000000 Si
0.500000 0.500000 0.500000 Si
0.750000 0.250000 0.250000 Ru
0.250000 0.750000 0.750000 Ru
0.750000 0.750000 0.750000 Ru
0.250000 0.250000 0.250000 Ru
0.250000 0.250000 0.750000 Ru
0.750000 0.750000 0.250000 Ru
0.250000 0.750000 0.250000 Ru
0.750000 0.250000 0.750000 Ru
