Mn4 V4 Ni4
1.0
  5.418868  0.000000  0.000000
  0.000000  5.418868  0.000000
  0.000000  0.000000  5.584740
Mn V Ni
4 4 4
direct
0.750000 0.250000 0.250000 Mn
0.750000 0.750000 0.750000 Mn
0.250000 0.250000 0.750000 Mn
0.250000 0.750000 0.250000 Mn
0.000000 0.000000 0.500000 V
0.000000 0.500000 0.000000 V
0.500000 0.000000 0.000000 V
0.500000 0.500000 0.500000 V
0.000000 0.000000 0.000000 Ni
0.000000 0.500000 0.500000 Ni
0.500000 0.000000 0.500000 Ni
0.500000 0.500000 0.000000 Ni
