Ga6 Co3 Ru3
1.0
  2.076949 -3.633718  0.000000
  2.097928  3.597381  0.000000
  0.000000  0.000000 10.473142
Ga Co Ru
6 3 3
direct
0.000000 0.000000 0.250021 Ga
0.666667 0.333333 0.583355 Ga
0.333333 0.666667 0.916688 Ga
0.000000 0.000000 0.749979 Ga
0.666667 0.333333 0.083312 Ga
0.333333 0.666667 0.416645 Ga
0.000000 0.000000 0.000000 Co
0.666667 0.333333 0.333333 Co
0.333333 0.666667 0.666667 Co
0.000000 0.000000 0.500000 Ru
0.666667 0.333333 0.833333 Ru
0.333333 0.666667 0.166667 Ru
