Ti8 Mn4 Os4
1.0
  6.032310  0.000000  0.000000
  0.000000  6.032310  0.000000
  0.000000  0.000000  6.216959
Ti Mn Os
8 4 4
direct
0.250000 0.250000 0.250000 Ti
0.750000 0.250000 0.250000 Ti
0.250000 0.750000 0.750000 Ti
0.750000 0.750000 0.750000 Ti
0.750000 0.250000 0.750000 Ti
0.250000 0.250000 0.750000 Ti
0.750000 0.750000 0.250000 Ti
0.250000 0.750000 0.250000 Ti
0.000000 0.000000 0.500000 Mn
0.000000 0.500000 0.000000 Mn
0.500000 0.000000 0.000000 Mn
0.500000 0.500000 0.500000 Mn
0.500000 0.000000 0.500000 Os
0.500000 0.500000 0.000000 Os
0.000000 0.000000 0.000000 Os
0.000000 0.500000 0.500000 Os
