Zn4 Fe4 Pb4
1.0
  6.153582  0.000000  0.000000
  0.000000  6.153582  0.000000
  0.000000  0.000000  6.341944
Zn Fe Pb
4 4 4
direct
0.000000 0.000000 0.000000 Zn
0.000000 0.500000 0.500000 Zn
0.500000 0.000000 0.500000 Zn
0.500000 0.500000 0.000000 Zn
0.000000 0.000000 0.500000 Fe
0.000000 0.500000 0.000000 Fe
0.500000 0.000000 0.000000 Fe
0.500000 0.500000 0.500000 Fe
0.750000 0.250000 0.250000 Pb
0.750000 0.750000 0.750000 Pb
0.250000 0.250000 0.750000 Pb
0.250000 0.750000 0.250000 Pb
