Fe1 Ni3
1.0
  3.502022  0.000000  0.000000
  0.000000  3.502022  0.000000
  0.000000  0.000000  3.609219
Fe Ni
1 3
direct
0.000000 0.000000 0.000000 Fe
0.500000 0.500000 0.000000 Ni
0.500000 0.000000 0.500000 Ni
0.000000 0.500000 0.500000 Ni
