Fe1 Ir3
1.0
  3.752252  0.000000  0.000000
  0.000000  3.752252  0.000000
  0.000000  0.000000  3.867109
Fe Ir
1 3
direct
0.000000 0.000000 0.000000 Fe
0.000000 0.500000 0.500000 Ir
0.500000 0.500000 0.000000 Ir
0.500000 0.000000 0.500000 Ir
