Cr6 Ir2
1.0
  4.603354  0.000000  0.000000
  0.000000  4.603354  0.000000
  0.000000  0.000000  4.744264
Cr Ir
6 2
direct
0.250000 0.000000 0.500000 Cr
0.750000 0.000000 0.500000 Cr
0.000000 0.500000 0.250000 Cr
0.000000 0.500000 0.750000 Cr
0.500000 0.750000 0.000000 Cr
0.500000 0.250000 0.000000 Cr
0.000000 0.000000 0.000000 Ir
0.500000 0.500000 0.500000 Ir
