Mn4 Sb4 Pt4
1.0
  6.080931  0.000000  0.000000
  0.000000  6.080931  0.000000
  0.000000  0.000000  6.267070
Mn Sb Pt
4 4 4
direct
0.750000 0.750000 0.250000 Mn
0.750000 0.250000 0.750000 Mn
0.250000 0.750000 0.750000 Mn
0.250000 0.250000 0.250000 Mn
0.000000 0.000000 0.000000 Sb
0.000000 0.500000 0.500000 Sb
0.500000 0.000000 0.500000 Sb
0.500000 0.500000 0.000000 Sb
0.500000 0.000000 0.000000 Pt
0.500000 0.500000 0.500000 Pt
0.000000 0.000000 0.500000 Pt
0.000000 0.500000 0.000000 Pt
