Ti4 Fe4 Sb4
1.0
  5.905616  0.000000  0.000000
  0.000000  5.905616  0.000000
  0.000000  0.000000  6.086388
Ti Fe Sb
4 4 4
direct
0.000000 0.000000 0.000000 Ti
0.000000 0.500000 0.500000 Ti
0.500000 0.000000 0.500000 Ti
0.500000 0.500000 0.000000 Ti
0.250000 0.750000 0.750000 Fe
0.250000 0.250000 0.250000 Fe
0.750000 0.750000 0.250000 Fe
0.750000 0.250000 0.750000 Fe
0.000000 0.000000 0.500000 Sb
0.000000 0.500000 0.000000 Sb
0.500000 0.000000 0.000000 Sb
0.500000 0.500000 0.500000 Sb
