Tl4 Co4 W4
1.0
  6.115793  0.000000  0.000000
  0.000000  6.115793  0.000000
  0.000000  0.000000  6.302999
Tl Co W
4 4 4
direct
0.000000 0.000000 0.500000 Tl
0.000000 0.500000 0.000000 Tl
0.500000 0.000000 0.000000 Tl
0.500000 0.500000 0.500000 Tl
0.000000 0.000000 0.000000 Co
0.000000 0.500000 0.500000 Co
0.500000 0.000000 0.500000 Co
0.500000 0.500000 0.000000 Co
0.250000 0.750000 0.750000 W
0.250000 0.250000 0.250000 W
0.750000 0.750000 0.250000 W
0.750000 0.250000 0.750000 W
