Zr8 Cr16
1.0
  7.073731  0.000000  0.000000
  0.000000  7.073731  0.000000
  0.000000  0.000000  7.290259
Zr Cr
8 16
direct
0.750000 0.250000 0.750000 Zr
0.000000 0.000000 0.000000 Zr
0.750000 0.750000 0.250000 Zr
0.000000 0.500000 0.500000 Zr
0.250000 0.250000 0.250000 Zr
0.500000 0.000000 0.500000 Zr
0.250000 0.750000 0.750000 Zr
0.500000 0.500000 0.000000 Zr
0.375000 0.875000 0.125000 Cr
0.125000 0.875000 0.375000 Cr
0.625000 0.125000 0.125000 Cr
0.875000 0.125000 0.375000 Cr
0.375000 0.375000 0.625000 Cr
0.125000 0.375000 0.875000 Cr
0.625000 0.625000 0.625000 Cr
0.875000 0.625000 0.875000 Cr
0.875000 0.875000 0.625000 Cr
0.625000 0.875000 0.875000 Cr
0.125000 0.125000 0.625000 Cr
0.375000 0.125000 0.875000 Cr
0.875000 0.375000 0.125000 Cr
0.625000 0.375000 0.375000 Cr
0.125000 0.625000 0.125000 Cr
0.375000 0.625000 0.375000 Cr
