Nb4 Cr4 Co4
1.0
  5.782253  0.000000  0.000000
  0.000000  5.782253  0.000000
  0.000000  0.000000  5.959249
Nb Cr Co
4 4 4
direct
0.750000 0.250000 0.750000 Nb
0.750000 0.750000 0.250000 Nb
0.250000 0.250000 0.250000 Nb
0.250000 0.750000 0.750000 Nb
0.000000 0.000000 0.500000 Cr
0.000000 0.500000 0.000000 Cr
0.500000 0.000000 0.000000 Cr
0.500000 0.500000 0.500000 Cr
0.000000 0.000000 0.000000 Co
0.000000 0.500000 0.500000 Co
0.500000 0.000000 0.500000 Co
0.500000 0.500000 0.000000 Co
