Fe4 Sb4 Pt4
1.0
 -6.076591  0.000000  0.000000
 -0.000365  6.077718  0.000000
 -0.002096  0.003309 -6.265455
Fe Sb Pt
4 4 4
direct
0.878405 0.878215 0.621910 Fe
0.121694 0.378443 0.878386 Fe
0.378315 0.621814 0.378222 Fe
0.621486 0.121458 0.121599 Fe
0.386609 0.886566 0.886584 Sb
0.886740 0.613301 0.113279 Sb
0.113316 0.113245 0.386566 Sb
0.613048 0.386838 0.613220 Sb
0.033015 0.532855 0.532913 Pt
0.533121 0.967066 0.467226 Pt
0.467128 0.467073 0.032996 Pt
0.967122 0.033126 0.967102 Pt
