Ga1 Fe3
1.0
  3.623899  0.000000  0.000000
  0.000000  3.623899  0.000000
  0.000000  0.000000  3.734827
Ga Fe
1 3
direct
0.000000 0.000000 0.000000 Ga
0.000000 0.500000 0.500000 Fe
0.500000 0.500000 0.000000 Fe
0.500000 0.000000 0.500000 Fe
