Cr21 Mo2 C6
1.0
 -7.448963  0.000000  0.000000
 -3.761224  6.451495  0.000000
 -3.761743  2.172226 -6.269393
Cr Mo C
21 2 6
direct
0.847847 0.384088 0.383919 Cr
0.999987 0.999974 0.337958 Cr
0.337805 0.662198 0.999974 Cr
0.999927 0.662152 0.337841 Cr
0.662098 0.999903 0.337945 Cr
0.000070 0.337826 0.662077 Cr
0.384133 0.384068 0.384029 Cr
0.000033 0.999992 0.662141 Cr
0.384105 0.847872 0.383908 Cr
0.337819 0.000013 0.662164 Cr
0.616050 0.616081 0.152052 Cr
0.000046 0.999897 0.999977 Cr
0.000062 0.338025 0.999960 Cr
0.999975 0.662075 0.000043 Cr
0.662011 0.999931 0.000040 Cr
0.662063 0.337911 0.000010 Cr
0.152143 0.615962 0.616104 Cr
0.383974 0.383945 0.847924 Cr
0.615894 0.615944 0.615924 Cr
0.615929 0.152114 0.616114 Cr
0.338044 0.000020 0.999915 Cr
0.749953 0.750077 0.750433 Mo
0.249978 0.249965 0.249583 Mo
0.724727 0.724726 0.275156 C
0.275304 0.275250 0.724839 C
0.275234 0.724671 0.724756 C
0.275339 0.724795 0.275199 C
0.724781 0.275330 0.275256 C
0.724667 0.275193 0.724760 C
