Be4 Cr4 Ru8
1.0
  5.718427  0.000000  0.000000
  0.000000  5.718427  0.000000
  0.000000  0.000000  5.893469
Be Cr Ru
4 4 8
direct
0.000000 0.000000 0.500000 Be
0.000000 0.500000 0.000000 Be
0.500000 0.000000 0.000000 Be
0.500000 0.500000 0.500000 Be
0.000000 0.000000 0.000000 Cr
0.000000 0.500000 0.500000 Cr
0.500000 0.000000 0.500000 Cr
0.500000 0.500000 0.000000 Cr
0.750000 0.250000 0.250000 Ru
0.750000 0.250000 0.750000 Ru
0.750000 0.750000 0.750000 Ru
0.750000 0.750000 0.250000 Ru
0.250000 0.250000 0.750000 Ru
0.250000 0.250000 0.250000 Ru
0.250000 0.750000 0.250000 Ru
0.250000 0.750000 0.750000 Ru
