Zr4 Co4 Sb4
1.0
  6.260753  0.000000  0.000000
  0.000000  6.260753  0.000000
  0.000000  0.000000  6.452396
Zr Co Sb
4 4 4
direct
0.500000 0.500000 0.500000 Zr
0.500000 0.000000 0.000000 Zr
0.000000 0.500000 0.000000 Zr
0.000000 0.000000 0.500000 Zr
0.000000 0.000000 0.000000 Co
0.000000 0.500000 0.500000 Co
0.500000 0.000000 0.500000 Co
0.500000 0.500000 0.000000 Co
0.750000 0.250000 0.250000 Sb
0.750000 0.750000 0.750000 Sb
0.250000 0.250000 0.750000 Sb
0.250000 0.750000 0.250000 Sb
