Zr4 Ni16 Sn4
1.0
  6.858250  0.000000  0.000000
  0.000000  6.858250  0.000000
  0.000000  0.000000  7.068182
Zr Ni Sn
4 16 4
direct
0.000000 0.000000 0.000000 Zr
0.000000 0.500000 0.500000 Zr
0.500000 0.000000 0.500000 Zr
0.500000 0.500000 0.000000 Zr
0.625367 0.125367 0.125367 Ni
0.874633 0.874633 0.625367 Ni
0.625367 0.874633 0.874633 Ni
0.874633 0.125367 0.374633 Ni
0.625367 0.625367 0.625367 Ni
0.874633 0.374633 0.125367 Ni
0.625367 0.374633 0.374633 Ni
0.874633 0.625367 0.874633 Ni
0.125367 0.125367 0.625367 Ni
0.374633 0.874633 0.125367 Ni
0.125367 0.874633 0.374633 Ni
0.374633 0.125367 0.874633 Ni
0.125367 0.625367 0.125367 Ni
0.374633 0.374633 0.625367 Ni
0.125367 0.374633 0.874633 Ni
0.374633 0.625367 0.374633 Ni
0.250000 0.750000 0.750000 Sn
0.250000 0.250000 0.250000 Sn
0.750000 0.750000 0.250000 Sn
0.750000 0.250000 0.750000 Sn
