Hf8 Co4 Re4
1.0
  6.385853  0.000000  0.000000
  0.000000  6.385853  0.000000
  0.000000  0.000000  6.581325
Hf Co Re
8 4 4
direct
0.250000 0.250000 0.250000 Hf
0.750000 0.250000 0.250000 Hf
0.250000 0.750000 0.750000 Hf
0.750000 0.750000 0.750000 Hf
0.750000 0.250000 0.750000 Hf
0.250000 0.250000 0.750000 Hf
0.750000 0.750000 0.250000 Hf
0.250000 0.750000 0.250000 Hf
0.500000 0.000000 0.000000 Co
0.500000 0.500000 0.500000 Co
0.000000 0.000000 0.500000 Co
0.000000 0.500000 0.000000 Co
0.000000 0.000000 0.000000 Re
0.000000 0.500000 0.500000 Re
0.500000 0.000000 0.500000 Re
0.500000 0.500000 0.000000 Re
