Mn3 Rh1 N1
1.0
  4.767375  0.000000  0.000000
  0.000000  4.767375  0.000000
  0.000000  0.000000  4.913305
Mn Rh N
3 1 1
direct
0.500000 0.500000 0.000000 Mn
0.500000 0.000000 0.500000 Mn
0.000000 0.500000 0.500000 Mn
0.500000 0.500000 0.500000 Rh
0.000000 0.000000 0.000000 N
