Mn8 Al4 W4
1.0
  5.841049  0.000000  0.000000
  0.000000  5.841049  0.000000
  0.000000  0.000000  6.019844
Mn Al W
8 4 4
direct
0.750000 0.250000 0.250000 Mn
0.750000 0.250000 0.750000 Mn
0.750000 0.750000 0.750000 Mn
0.750000 0.750000 0.250000 Mn
0.250000 0.250000 0.750000 Mn
0.250000 0.250000 0.250000 Mn
0.250000 0.750000 0.250000 Mn
0.250000 0.750000 0.750000 Mn
0.000000 0.000000 0.500000 Al
0.000000 0.500000 0.000000 Al
0.500000 0.000000 0.000000 Al
0.500000 0.500000 0.500000 Al
0.000000 0.000000 0.000000 W
0.000000 0.500000 0.500000 W
0.500000 0.000000 0.500000 W
0.500000 0.500000 0.000000 W
