Fe13 Ge3
1.0
 -5.654126  0.000000  0.000000
 -0.007653  5.675994  0.000000
 -0.006170  0.004224 -5.860440
Fe Ge
13 3
direct
0.252109 0.252033 0.747885 Fe
0.252225 0.747748 0.747314 Fe
0.747639 0.252195 0.747977 Fe
0.747565 0.747305 0.252638 Fe
0.252466 0.747365 0.252848 Fe
0.999884 0.499801 0.500051 Fe
0.500211 0.500057 0.499870 Fe
0.252444 0.252642 0.252453 Fe
0.747710 0.747743 0.747456 Fe
0.499889 0.500149 0.999997 Fe
0.747625 0.252647 0.252104 Fe
0.500098 0.000046 0.500018 Fe
0.000342 0.000003 0.999962 Fe
0.999853 0.000404 0.500012 Ge
0.000194 0.500117 0.999642 Ge
0.499747 0.999746 0.999774 Ge
