Hf8 Mn4 Ir4
1.0
  6.383142  0.000000  0.000000
  0.000000  6.383142  0.000000
  0.000000  0.000000  6.578531
Hf Mn Ir
8 4 4
direct
0.750000 0.250000 0.250000 Hf
0.250000 0.750000 0.750000 Hf
0.750000 0.750000 0.750000 Hf
0.250000 0.250000 0.250000 Hf
0.250000 0.250000 0.750000 Hf
0.750000 0.750000 0.250000 Hf
0.250000 0.750000 0.250000 Hf
0.750000 0.250000 0.750000 Hf
0.000000 0.000000 0.000000 Mn
0.000000 0.500000 0.500000 Mn
0.500000 0.000000 0.500000 Mn
0.500000 0.500000 0.000000 Mn
0.500000 0.500000 0.500000 Ir
0.500000 0.000000 0.000000 Ir
0.000000 0.500000 0.000000 Ir
0.000000 0.000000 0.500000 Ir
