Mn4 V8 Os4
1.0
  5.855978  0.000000  0.000000
  0.000000  5.855978  0.000000
  0.000000  0.000000  6.035230
Mn V Os
4 8 4
direct
0.500000 0.500000 0.500000 Mn
0.500000 0.000000 0.000000 Mn
0.000000 0.500000 0.000000 Mn
0.000000 0.000000 0.500000 Mn
0.250000 0.750000 0.250000 V
0.250000 0.750000 0.750000 V
0.250000 0.250000 0.750000 V
0.250000 0.250000 0.250000 V
0.750000 0.750000 0.750000 V
0.750000 0.750000 0.250000 V
0.750000 0.250000 0.250000 V
0.750000 0.250000 0.750000 V
0.000000 0.000000 0.000000 Os
0.000000 0.500000 0.500000 Os
0.500000 0.000000 0.500000 Os
0.500000 0.500000 0.000000 Os
