Ni2 Hg8
1.0
  6.121860  0.000000  0.000000
  0.000000  6.121860  0.000000
  0.000000  0.000000  6.309251
Ni Hg
2 8
direct
0.000000 0.000000 0.000000 Ni
0.500000 0.500000 0.500000 Ni
0.250000 0.750000 0.250000 Hg
0.250000 0.250000 0.750000 Hg
0.250000 0.750000 0.750000 Hg
0.750000 0.750000 0.750000 Hg
0.750000 0.250000 0.750000 Hg
0.750000 0.750000 0.250000 Hg
0.750000 0.250000 0.250000 Hg
0.250000 0.250000 0.250000 Hg
