Ti8 Co4 Re4
1.0
  6.051570  0.000000  0.000000
  0.000000  6.051570  0.000000
  0.000000  0.000000  6.236810
Ti Co Re
8 4 4
direct
0.250000 0.750000 0.750000 Ti
0.250000 0.750000 0.250000 Ti
0.250000 0.250000 0.250000 Ti
0.250000 0.250000 0.750000 Ti
0.750000 0.750000 0.250000 Ti
0.750000 0.750000 0.750000 Ti
0.750000 0.250000 0.750000 Ti
0.750000 0.250000 0.250000 Ti
0.000000 0.000000 0.000000 Co
0.000000 0.500000 0.500000 Co
0.500000 0.000000 0.500000 Co
0.500000 0.500000 0.000000 Co
0.500000 0.500000 0.500000 Re
0.500000 0.000000 0.000000 Re
0.000000 0.500000 0.000000 Re
0.000000 0.000000 0.500000 Re
