Zr8 Co16
1.0
  6.839855  0.000000  0.000000
  0.000000  6.839855  0.000000
  0.000000  0.000000  7.049224
Zr Co
8 16
direct
0.875000 0.875000 0.875000 Zr
0.625000 0.125000 0.625000 Zr
0.875000 0.375000 0.375000 Zr
0.625000 0.625000 0.125000 Zr
0.375000 0.875000 0.375000 Zr
0.125000 0.125000 0.125000 Zr
0.375000 0.375000 0.875000 Zr
0.125000 0.625000 0.625000 Zr
0.750000 0.000000 0.250000 Co
0.500000 0.000000 0.000000 Co
0.500000 0.250000 0.250000 Co
0.750000 0.250000 0.000000 Co
0.750000 0.500000 0.750000 Co
0.500000 0.500000 0.500000 Co
0.500000 0.750000 0.750000 Co
0.750000 0.750000 0.500000 Co
0.250000 0.000000 0.750000 Co
0.000000 0.000000 0.500000 Co
0.000000 0.250000 0.750000 Co
0.250000 0.250000 0.500000 Co
0.250000 0.500000 0.250000 Co
0.000000 0.500000 0.000000 Co
0.000000 0.750000 0.250000 Co
0.250000 0.750000 0.000000 Co
