Li4 Zn8 Ni4
1.0
  5.817142  0.000000  0.000000
  0.000000  5.817142  0.000000
  0.000000  0.000000  5.995206
Li Zn Ni
4 8 4
direct
0.000000 0.500000 0.500000 Li
0.000000 0.000000 0.000000 Li
0.500000 0.500000 0.000000 Li
0.500000 0.000000 0.500000 Li
0.250000 0.250000 0.750000 Zn
0.250000 0.250000 0.250000 Zn
0.250000 0.750000 0.250000 Zn
0.250000 0.750000 0.750000 Zn
0.750000 0.250000 0.250000 Zn
0.750000 0.250000 0.750000 Zn
0.750000 0.750000 0.750000 Zn
0.750000 0.750000 0.250000 Zn
0.000000 0.500000 0.000000 Ni
0.000000 0.000000 0.500000 Ni
0.500000 0.500000 0.500000 Ni
0.500000 0.000000 0.000000 Ni
