Ni3 S6
1.0
  1.993519 -3.487755  0.000000
  2.013656  3.452877  0.000000
  0.000000  0.000000 10.054432
Ni S
3 6
direct
0.000000 0.000000 0.000000 Ni
0.666667 0.333333 0.333333 Ni
0.333333 0.666667 0.666667 Ni
0.000000 0.000000 0.250011 S
0.666667 0.333333 0.583344 S
0.333333 0.666667 0.916677 S
0.000000 0.000000 0.749989 S
0.666667 0.333333 0.083323 S
0.333333 0.666667 0.416656 S
