Hf4 Mn4 Rh8
1.0
  6.273378  0.000000  0.000000
  0.000000  6.273378  0.000000
  0.000000  0.000000  6.465407
Hf Mn Rh
4 4 8
direct
0.000000 0.000000 0.000000 Hf
0.000000 0.500000 0.500000 Hf
0.500000 0.000000 0.500000 Hf
0.500000 0.500000 0.000000 Hf
0.500000 0.500000 0.500000 Mn
0.500000 0.000000 0.000000 Mn
0.000000 0.500000 0.000000 Mn
0.000000 0.000000 0.500000 Mn
0.750000 0.250000 0.250000 Rh
0.750000 0.750000 0.250000 Rh
0.750000 0.750000 0.750000 Rh
0.750000 0.250000 0.750000 Rh
0.250000 0.250000 0.750000 Rh
0.250000 0.750000 0.750000 Rh
0.250000 0.750000 0.250000 Rh
0.250000 0.250000 0.250000 Rh
