Mg4 Ni4 Bi4
1.0
  6.216573  0.000000  0.000000
  0.000000  6.216573  0.000000
  0.000000  0.000000  6.406864
Mg Ni Bi
4 4 4
direct
0.750000 0.250000 0.750000 Mg
0.750000 0.750000 0.250000 Mg
0.250000 0.250000 0.250000 Mg
0.250000 0.750000 0.750000 Mg
0.000000 0.000000 0.000000 Ni
0.000000 0.500000 0.500000 Ni
0.500000 0.000000 0.500000 Ni
0.500000 0.500000 0.000000 Ni
0.250000 0.250000 0.750000 Bi
0.250000 0.750000 0.250000 Bi
0.750000 0.250000 0.250000 Bi
0.750000 0.750000 0.750000 Bi
