Nb4 Cr4 W4
1.0
  6.023836  0.000000  0.000000
  0.000000  6.023836  0.000000
  0.000000  0.000000  6.208227
Nb Cr W
4 4 4
direct
0.500000 0.000000 0.000000 Nb
0.500000 0.500000 0.500000 Nb
0.000000 0.000000 0.500000 Nb
0.000000 0.500000 0.000000 Nb
0.000000 0.000000 0.000000 Cr
0.000000 0.500000 0.500000 Cr
0.500000 0.000000 0.500000 Cr
0.500000 0.500000 0.000000 Cr
0.750000 0.250000 0.750000 W
0.750000 0.750000 0.250000 W
0.250000 0.250000 0.250000 W
0.250000 0.750000 0.750000 W
