Mn4 Al4 Tc4
1.0
  5.766229  0.000000  0.000000
  0.000000  5.766229  0.000000
  0.000000  0.000000  5.942734
Mn Al Tc
4 4 4
direct
0.000000 0.000000 0.000000 Mn
0.000000 0.500000 0.500000 Mn
0.500000 0.000000 0.500000 Mn
0.500000 0.500000 0.000000 Mn
0.750000 0.250000 0.250000 Al
0.750000 0.750000 0.750000 Al
0.250000 0.250000 0.750000 Al
0.250000 0.750000 0.250000 Al
0.000000 0.000000 0.500000 Tc
0.000000 0.500000 0.000000 Tc
0.500000 0.000000 0.000000 Tc
0.500000 0.500000 0.500000 Tc
