Ti8 Mn4 Be4
1.0
  5.875176  0.000000  0.000000
  0.000000  5.875176  0.000000
  0.000000  0.000000  6.055016
Ti Mn Be
8 4 4
direct
0.250000 0.250000 0.750000 Ti
0.750000 0.250000 0.750000 Ti
0.250000 0.750000 0.250000 Ti
0.750000 0.750000 0.250000 Ti
0.750000 0.250000 0.250000 Ti
0.250000 0.250000 0.250000 Ti
0.750000 0.750000 0.750000 Ti
0.250000 0.750000 0.750000 Ti
0.500000 0.000000 0.000000 Mn
0.500000 0.500000 0.500000 Mn
0.000000 0.000000 0.500000 Mn
0.000000 0.500000 0.000000 Mn
0.500000 0.000000 0.500000 Be
0.500000 0.500000 0.000000 Be
0.000000 0.000000 0.000000 Be
0.000000 0.500000 0.500000 Be
