Ni4 As8
1.0
  5.729380  0.000000  0.000000
  0.000000  5.729380  0.000000
  0.000000  0.000000  5.904758
Ni As
4 8
direct
0.000000 0.000000 0.000000 Ni
0.500000 0.000000 0.500000 Ni
0.500000 0.500000 0.000000 Ni
0.000000 0.500000 0.500000 Ni
0.376651 0.376651 0.376651 As
0.123349 0.623349 0.876651 As
0.876651 0.123349 0.623349 As
0.623349 0.876651 0.123349 As
0.623349 0.623349 0.623349 As
0.876651 0.376651 0.123349 As
0.123349 0.876651 0.376651 As
0.376651 0.123349 0.876651 As
