Al1 Co3 C1
1.0
  3.685682  0.000000  0.000000
  0.000000  3.685682  0.000000
  0.000000  0.000000  3.798501
Al Co C
1 3 1
direct
0.000000 0.000000 0.000000 Al
0.000000 0.500000 0.500000 Co
0.500000 0.000000 0.500000 Co
0.500000 0.500000 0.000000 Co
0.500000 0.500000 0.500000 C
