Mn8 V4 Ga4
1.0
  5.766251  0.000000  0.000000
  0.000000  5.766251  0.000000
  0.000000  0.000000  5.942757
Mn V Ga
8 4 4
direct
0.750000 0.250000 0.250000 Mn
0.750000 0.250000 0.750000 Mn
0.750000 0.750000 0.750000 Mn
0.750000 0.750000 0.250000 Mn
0.250000 0.250000 0.750000 Mn
0.250000 0.250000 0.250000 Mn
0.250000 0.750000 0.250000 Mn
0.250000 0.750000 0.750000 Mn
0.000000 0.000000 0.000000 V
0.000000 0.500000 0.500000 V
0.500000 0.000000 0.500000 V
0.500000 0.500000 0.000000 V
0.500000 0.500000 0.500000 Ga
0.500000 0.000000 0.000000 Ga
0.000000 0.500000 0.000000 Ga
0.000000 0.000000 0.500000 Ga
