Mn8 Nb4 Al4
1.0
  5.957740  0.000000  0.000000
  0.000000  5.957740  0.000000
  0.000000  0.000000  6.140107
Mn Nb Al
8 4 4
direct
0.750000 0.250000 0.250000 Mn
0.750000 0.250000 0.750000 Mn
0.750000 0.750000 0.750000 Mn
0.750000 0.750000 0.250000 Mn
0.250000 0.250000 0.750000 Mn
0.250000 0.250000 0.250000 Mn
0.250000 0.750000 0.250000 Mn
0.250000 0.750000 0.750000 Mn
0.000000 0.000000 0.000000 Nb
0.000000 0.500000 0.500000 Nb
0.500000 0.000000 0.500000 Nb
0.500000 0.500000 0.000000 Nb
0.500000 0.500000 0.500000 Al
0.500000 0.000000 0.000000 Al
0.000000 0.500000 0.000000 Al
0.000000 0.000000 0.500000 Al
