Mn8 Co4 Sn4
1.0
  6.080370  0.000000  0.000000
  0.000000  6.080370  0.000000
  0.000000  0.000000  6.266491
Mn Co Sn
8 4 4
direct
0.000000 0.000000 0.000000 Mn
0.250000 0.750000 0.750000 Mn
0.000000 0.500000 0.500000 Mn
0.250000 0.250000 0.250000 Mn
0.500000 0.000000 0.500000 Mn
0.750000 0.750000 0.250000 Mn
0.500000 0.500000 0.000000 Mn
0.750000 0.250000 0.750000 Mn
0.500000 0.500000 0.500000 Co
0.500000 0.000000 0.000000 Co
0.000000 0.500000 0.000000 Co
0.000000 0.000000 0.500000 Co
0.750000 0.250000 0.250000 Sn
0.750000 0.750000 0.750000 Sn
0.250000 0.250000 0.750000 Sn
0.250000 0.750000 0.250000 Sn
