Ti4 Ni4 Sn4
1.0
  6.083306  0.000000  0.000000
  0.000000  6.083306  0.000000
  0.000000  0.000000  6.269517
Ti Ni Sn
4 4 4
direct
0.000000 0.000000 0.000000 Ti
0.000000 0.500000 0.500000 Ti
0.500000 0.000000 0.500000 Ti
0.500000 0.500000 0.000000 Ti
0.500000 0.000000 0.000000 Ni
0.500000 0.500000 0.500000 Ni
0.000000 0.000000 0.500000 Ni
0.000000 0.500000 0.000000 Ni
0.250000 0.750000 0.750000 Sn
0.250000 0.250000 0.250000 Sn
0.750000 0.750000 0.250000 Sn
0.750000 0.250000 0.750000 Sn
