Al1 Fe3 C1
1.0
  3.718207  0.000000  0.000000
  0.000000  3.718207  0.000000
  0.000000  0.000000  3.832022
Al Fe C
1 3 1
direct
0.000000 0.000000 0.000000 Al
0.000000 0.500000 0.500000 Fe
0.500000 0.500000 0.000000 Fe
0.500000 0.000000 0.500000 Fe
0.500000 0.500000 0.500000 C
