Fe4 Si4
1.0
  4.403739  0.000000  0.000000
  0.000000  4.403739  0.000000
  0.000000  0.000000  4.538538
Fe Si
4 4
direct
0.863684 0.636316 0.363684 Fe
0.636316 0.363684 0.863684 Fe
0.363684 0.863684 0.636316 Fe
0.136316 0.136316 0.136316 Fe
0.159187 0.340813 0.659187 Si
0.340813 0.659187 0.159187 Si
0.659187 0.159187 0.340813 Si
0.840813 0.840813 0.840813 Si
