Mn12 Ge4 Ir4
1.0
  6.543391  0.000000  0.000000
  0.000000  6.543391  0.000000
  0.000000  0.000000  6.743685
Mn Ge Ir
12 4 4
direct
0.120630 0.206179 0.453031 Mn
0.453031 0.120630 0.206179 Mn
0.206179 0.453031 0.120630 Mn
0.293821 0.546969 0.620630 Mn
0.953031 0.379370 0.793821 Mn
0.793821 0.953031 0.379370 Mn
0.046969 0.879370 0.706179 Mn
0.546969 0.620630 0.293821 Mn
0.706179 0.046969 0.879370 Mn
0.620630 0.293821 0.546969 Mn
0.879370 0.706179 0.046969 Mn
0.379370 0.793821 0.953031 Mn
0.938139 0.561861 0.438139 Ge
0.561861 0.438139 0.938139 Ge
0.438139 0.938139 0.561861 Ge
0.061861 0.061861 0.061861 Ge
0.310346 0.189654 0.810346 Ir
0.189654 0.810346 0.310346 Ir
0.810346 0.310346 0.189654 Ir
0.689654 0.689654 0.689654 Ir
