Al4 Cr4 Fe8
1.0
  5.612799  0.000000  0.000000
  0.000000  5.612799  0.000000
  0.000000  0.000000  5.784608
Al Cr Fe
4 4 8
direct
0.000000 0.000000 0.000000 Al
0.000000 0.500000 0.500000 Al
0.500000 0.000000 0.500000 Al
0.500000 0.500000 0.000000 Al
0.500000 0.000000 0.000000 Cr
0.500000 0.500000 0.500000 Cr
0.000000 0.000000 0.500000 Cr
0.000000 0.500000 0.000000 Cr
0.750000 0.250000 0.250000 Fe
0.250000 0.750000 0.750000 Fe
0.750000 0.750000 0.750000 Fe
0.250000 0.250000 0.250000 Fe
0.250000 0.250000 0.750000 Fe
0.750000 0.750000 0.250000 Fe
0.250000 0.750000 0.250000 Fe
0.750000 0.250000 0.750000 Fe
