Ga4 Fe4 Rh8
1.0
  5.986249  0.000000  0.000000
  0.000000  5.986249  0.000000
  0.000000  0.000000  6.169489
Ga Fe Rh
4 4 8
direct
0.000000 0.000000 0.000000 Ga
0.000000 0.500000 0.500000 Ga
0.500000 0.000000 0.500000 Ga
0.500000 0.500000 0.000000 Ga
0.500000 0.500000 0.500000 Fe
0.500000 0.000000 0.000000 Fe
0.000000 0.500000 0.000000 Fe
0.000000 0.000000 0.500000 Fe
0.750000 0.250000 0.250000 Rh
0.750000 0.250000 0.750000 Rh
0.750000 0.750000 0.750000 Rh
0.750000 0.750000 0.250000 Rh
0.250000 0.250000 0.750000 Rh
0.250000 0.250000 0.250000 Rh
0.250000 0.750000 0.250000 Rh
0.250000 0.750000 0.750000 Rh
