Ni8 P24
1.0
  7.745871  0.000000  0.000000
  0.000000  7.745871  0.000000
  0.000000  0.000000  7.982973
Ni P
8 24
direct
0.250000 0.750000 0.750000 Ni
0.750000 0.750000 0.250000 Ni
0.750000 0.250000 0.750000 Ni
0.750000 0.750000 0.750000 Ni
0.750000 0.250000 0.250000 Ni
0.250000 0.250000 0.750000 Ni
0.250000 0.750000 0.250000 Ni
0.250000 0.250000 0.250000 Ni
0.000000 0.643925 0.856981 P
0.000000 0.356075 0.856981 P
0.000000 0.643925 0.143019 P
0.356075 0.143019 0.000000 P
0.000000 0.356075 0.143019 P
0.643925 0.143019 0.000000 P
0.856981 0.000000 0.356075 P
0.643925 0.856981 0.000000 P
0.143019 0.000000 0.643925 P
0.356075 0.856981 0.000000 P
0.856981 0.000000 0.643925 P
0.143019 0.000000 0.356075 P
0.500000 0.143925 0.356981 P
0.500000 0.856075 0.356981 P
0.500000 0.143925 0.643019 P
0.856075 0.643019 0.500000 P
0.500000 0.856075 0.643019 P
0.143925 0.643019 0.500000 P
0.356981 0.500000 0.856075 P
0.143925 0.356981 0.500000 P
0.643019 0.500000 0.143925 P
0.856075 0.356981 0.500000 P
0.356981 0.500000 0.143925 P
0.643019 0.500000 0.856075 P
