Mn4 Sn4 Pt4
1.0
  6.067238  0.000000  0.000000
  0.000000  6.067238  0.000000
  0.000000  0.000000  6.252957
Mn Sn Pt
4 4 4
direct
0.750000 0.250000 0.250000 Mn
0.750000 0.750000 0.750000 Mn
0.250000 0.250000 0.750000 Mn
0.250000 0.750000 0.250000 Mn
0.000000 0.000000 0.000000 Sn
0.000000 0.500000 0.500000 Sn
0.500000 0.000000 0.500000 Sn
0.500000 0.500000 0.000000 Sn
0.000000 0.000000 0.500000 Pt
0.000000 0.500000 0.000000 Pt
0.500000 0.000000 0.000000 Pt
0.500000 0.500000 0.500000 Pt
