Ti4 Ni4 Sb4
1.0
  6.112810  0.000000  0.000000
  0.000000  6.112810  0.000000
  0.000000  0.000000  6.299924
Ti Ni Sb
4 4 4
direct
0.250000 0.750000 0.750000 Ti
0.250000 0.250000 0.250000 Ti
0.750000 0.750000 0.250000 Ti
0.750000 0.250000 0.750000 Ti
0.000000 0.000000 0.000000 Ni
0.000000 0.500000 0.500000 Ni
0.500000 0.000000 0.500000 Ni
0.500000 0.500000 0.000000 Ni
0.000000 0.500000 0.000000 Sb
0.000000 0.000000 0.500000 Sb
0.500000 0.500000 0.500000 Sb
0.500000 0.000000 0.000000 Sb
