Mn3 Zn1 C1
1.0
  4.539124  0.000000  0.000000
  0.000000  4.549399  0.000000
  0.000000  0.000000  4.691174
Mn Zn C
3 1 1
direct
0.500000 0.000000 0.500000 Mn
0.500000 0.500000 0.000000 Mn
0.000000 0.500000 0.500000 Mn
0.500000 0.500000 0.500000 Zn
0.000000 0.000000 0.000000 C
