Sr4 Mn8 Si4
1.0
  6.800161  0.000000  0.000000
  0.000000  6.800161  0.000000
  0.000000  0.000000  7.008315
Sr Mn Si
4 8 4
direct
0.750000 0.250000 0.750000 Sr
0.750000 0.750000 0.250000 Sr
0.250000 0.250000 0.250000 Sr
0.250000 0.750000 0.750000 Sr
0.000000 0.000000 0.000000 Mn
0.750000 0.250000 0.250000 Mn
0.000000 0.500000 0.500000 Mn
0.750000 0.750000 0.750000 Mn
0.500000 0.000000 0.500000 Mn
0.250000 0.250000 0.750000 Mn
0.500000 0.500000 0.000000 Mn
0.250000 0.750000 0.250000 Mn
0.000000 0.000000 0.500000 Si
0.000000 0.500000 0.000000 Si
0.500000 0.000000 0.000000 Si
0.500000 0.500000 0.500000 Si
