Zr8 Ni16
1.0
  6.898605  0.000000  0.000000
  0.000000  6.898605  0.000000
  0.000000  0.000000  7.109772
Zr Ni
8 16
direct
0.125000 0.125000 0.125000 Zr
0.375000 0.875000 0.375000 Zr
0.125000 0.625000 0.625000 Zr
0.375000 0.375000 0.875000 Zr
0.625000 0.125000 0.625000 Zr
0.875000 0.875000 0.875000 Zr
0.625000 0.625000 0.125000 Zr
0.875000 0.375000 0.375000 Zr
0.250000 0.000000 0.750000 Ni
0.500000 0.750000 0.750000 Ni
0.500000 0.000000 0.000000 Ni
0.250000 0.750000 0.000000 Ni
0.250000 0.500000 0.250000 Ni
0.500000 0.250000 0.250000 Ni
0.500000 0.500000 0.500000 Ni
0.250000 0.250000 0.500000 Ni
0.750000 0.000000 0.250000 Ni
0.000000 0.750000 0.250000 Ni
0.000000 0.000000 0.500000 Ni
0.750000 0.750000 0.500000 Ni
0.750000 0.500000 0.750000 Ni
0.000000 0.250000 0.750000 Ni
0.000000 0.500000 0.000000 Ni
0.750000 0.250000 0.000000 Ni
