Mn3 Sb1
1.0
  3.775248  0.000000  0.000000
  0.000000  3.775248  0.000000
  0.000000  0.000000  3.890809
Mn Sb
3 1
direct
0.000000 0.500000 0.500000 Mn
0.500000 0.500000 0.000000 Mn
0.500000 0.000000 0.500000 Mn
0.000000 0.000000 0.000000 Sb
