Al8 Ni4 Ru4
1.0
  5.825644  0.000000  0.000000
  0.000000  5.825644  0.000000
  0.000000  0.000000  6.003968
Al Ni Ru
8 4 4
direct
0.750000 0.250000 0.750000 Al
0.750000 0.250000 0.250000 Al
0.750000 0.750000 0.250000 Al
0.750000 0.750000 0.750000 Al
0.250000 0.250000 0.250000 Al
0.250000 0.250000 0.750000 Al
0.250000 0.750000 0.750000 Al
0.250000 0.750000 0.250000 Al
0.000000 0.000000 0.500000 Ni
0.000000 0.500000 0.000000 Ni
0.500000 0.000000 0.000000 Ni
0.500000 0.500000 0.500000 Ni
0.500000 0.500000 0.000000 Ru
0.500000 0.000000 0.500000 Ru
0.000000 0.500000 0.500000 Ru
0.000000 0.000000 0.000000 Ru
