Ta4 Ti4 Mn8
1.0
  5.986548  0.000000  0.000000
  0.000000  5.986548  0.000000
  0.000000  0.000000  6.169797
Ta Ti Mn
4 4 8
direct
0.000000 0.000000 0.500000 Ta
0.000000 0.500000 0.000000 Ta
0.500000 0.000000 0.000000 Ta
0.500000 0.500000 0.500000 Ta
0.500000 0.500000 0.000000 Ti
0.500000 0.000000 0.500000 Ti
0.000000 0.500000 0.500000 Ti
0.000000 0.000000 0.000000 Ti
0.750000 0.250000 0.250000 Mn
0.750000 0.250000 0.750000 Mn
0.750000 0.750000 0.750000 Mn
0.750000 0.750000 0.250000 Mn
0.250000 0.250000 0.750000 Mn
0.250000 0.250000 0.250000 Mn
0.250000 0.750000 0.250000 Mn
0.250000 0.750000 0.750000 Mn
