Li3 Cr1 S4
1.0
  5.879388  0.000000  0.000000
  0.000000  5.879388  0.000000
  0.000000  0.000000  6.059357
Li Cr S
3 1 4
direct
0.000000 0.000000 0.500000 Li
0.000000 0.500000 0.000000 Li
0.500000 0.000000 0.000000 Li
0.000000 0.000000 0.000000 Cr
0.207437 0.207437 0.207437 S
0.207437 0.792563 0.792563 S
0.792563 0.207437 0.792563 S
0.792563 0.792563 0.207437 S
