Mn4 Nb4 Ru8
1.0
  6.157471  0.000000  0.000000
  0.000000  6.157471  0.000000
  0.000000  0.000000  6.345952
Mn Nb Ru
4 4 8
direct
0.000000 0.000000 0.000000 Mn
0.000000 0.500000 0.500000 Mn
0.500000 0.000000 0.500000 Mn
0.500000 0.500000 0.000000 Mn
0.500000 0.500000 0.500000 Nb
0.500000 0.000000 0.000000 Nb
0.000000 0.500000 0.000000 Nb
0.000000 0.000000 0.500000 Nb
0.750000 0.250000 0.250000 Ru
0.250000 0.250000 0.250000 Ru
0.750000 0.750000 0.750000 Ru
0.250000 0.750000 0.750000 Ru
0.250000 0.250000 0.750000 Ru
0.750000 0.250000 0.750000 Ru
0.250000 0.750000 0.250000 Ru
0.750000 0.750000 0.250000 Ru
