Mn4 Be8 Rh4
1.0
  5.489195  0.000000  0.000000
  0.000000  5.489195  0.000000
  0.000000  0.000000  5.657220
Mn Be Rh
4 8 4
direct
0.000000 0.000000 0.000000 Mn
0.000000 0.500000 0.500000 Mn
0.500000 0.000000 0.500000 Mn
0.500000 0.500000 0.000000 Mn
0.250000 0.750000 0.250000 Be
0.250000 0.750000 0.750000 Be
0.250000 0.250000 0.750000 Be
0.250000 0.250000 0.250000 Be
0.750000 0.750000 0.750000 Be
0.750000 0.750000 0.250000 Be
0.750000 0.250000 0.250000 Be
0.750000 0.250000 0.750000 Be
0.000000 0.000000 0.500000 Rh
0.000000 0.500000 0.000000 Rh
0.500000 0.000000 0.000000 Rh
0.500000 0.500000 0.500000 Rh
