Zr8 Mn16
1.0
  6.965261  0.000000  0.000000
  0.000000  6.965261  0.000000
  0.000000  0.000000  7.178469
Zr Mn
8 16
direct
0.875000 0.875000 0.375000 Zr
0.125000 0.625000 0.125000 Zr
0.875000 0.375000 0.875000 Zr
0.125000 0.125000 0.625000 Zr
0.375000 0.875000 0.875000 Zr
0.625000 0.625000 0.625000 Zr
0.375000 0.375000 0.375000 Zr
0.625000 0.125000 0.125000 Zr
0.000000 0.750000 0.750000 Mn
0.750000 0.000000 0.750000 Mn
0.500000 0.500000 0.000000 Mn
0.250000 0.750000 0.500000 Mn
0.000000 0.250000 0.250000 Mn
0.750000 0.500000 0.250000 Mn
0.500000 0.000000 0.500000 Mn
0.250000 0.250000 0.000000 Mn
0.500000 0.750000 0.250000 Mn
0.250000 0.000000 0.250000 Mn
0.000000 0.500000 0.500000 Mn
0.750000 0.750000 0.000000 Mn
0.500000 0.250000 0.750000 Mn
0.250000 0.500000 0.750000 Mn
0.000000 0.000000 0.000000 Mn
0.750000 0.250000 0.500000 Mn
