Al8 Co4 Ru4
1.0
  5.825378  0.000000  0.000000
  0.000000  5.825378  0.000000
  0.000000  0.000000  6.003694
Al Co Ru
8 4 4
direct
0.750000 0.250000 0.750000 Al
0.750000 0.250000 0.250000 Al
0.750000 0.750000 0.250000 Al
0.750000 0.750000 0.750000 Al
0.250000 0.250000 0.250000 Al
0.250000 0.250000 0.750000 Al
0.250000 0.750000 0.750000 Al
0.250000 0.750000 0.250000 Al
0.000000 0.000000 0.000000 Co
0.000000 0.500000 0.500000 Co
0.500000 0.000000 0.500000 Co
0.500000 0.500000 0.000000 Co
0.500000 0.500000 0.500000 Ru
0.500000 0.000000 0.000000 Ru
0.000000 0.500000 0.000000 Ru
0.000000 0.000000 0.500000 Ru
