Mn8 Ga4 Co4
1.0
  5.833715  0.000000  0.000000
  0.000000  5.833715  0.000000
  0.000000  0.000000  6.012285
Mn Ga Co
8 4 4
direct
0.000000 0.000000 0.000000 Mn
0.750000 0.250000 0.750000 Mn
0.000000 0.500000 0.500000 Mn
0.750000 0.750000 0.250000 Mn
0.500000 0.000000 0.500000 Mn
0.250000 0.250000 0.250000 Mn
0.500000 0.500000 0.000000 Mn
0.250000 0.750000 0.750000 Mn
0.750000 0.250000 0.250000 Ga
0.750000 0.750000 0.750000 Ga
0.250000 0.250000 0.750000 Ga
0.250000 0.750000 0.250000 Ga
0.500000 0.000000 0.000000 Co
0.500000 0.500000 0.500000 Co
0.000000 0.000000 0.500000 Co
0.000000 0.500000 0.000000 Co
