Mn4 Te4 Pd4
1.0
  6.294843  0.000000  0.000000
  0.000000  6.294843  0.000000
  0.000000  0.000000  6.487529
Mn Te Pd
4 4 4
direct
0.500000 0.500000 0.500000 Mn
0.500000 0.000000 0.000000 Mn
0.000000 0.500000 0.000000 Mn
0.000000 0.000000 0.500000 Mn
0.250000 0.750000 0.750000 Te
0.250000 0.250000 0.250000 Te
0.750000 0.750000 0.250000 Te
0.750000 0.250000 0.750000 Te
0.000000 0.000000 0.000000 Pd
0.000000 0.500000 0.500000 Pd
0.500000 0.000000 0.500000 Pd
0.500000 0.500000 0.000000 Pd
