Ti4 Fe8 Ge4
1.0
  5.731777  0.000000  0.000000
  0.000000  5.731777  0.000000
  0.000000  0.000000  5.907228
Ti Fe Ge
4 8 4
direct
0.500000 0.000000 0.000000 Ti
0.500000 0.500000 0.500000 Ti
0.000000 0.000000 0.500000 Ti
0.000000 0.500000 0.000000 Ti
0.750000 0.750000 0.750000 Fe
0.250000 0.750000 0.750000 Fe
0.750000 0.250000 0.250000 Fe
0.250000 0.250000 0.250000 Fe
0.250000 0.750000 0.250000 Fe
0.750000 0.750000 0.250000 Fe
0.250000 0.250000 0.750000 Fe
0.750000 0.250000 0.750000 Fe
0.000000 0.500000 0.500000 Ge
0.000000 0.000000 0.000000 Ge
0.500000 0.500000 0.000000 Ge
0.500000 0.000000 0.500000 Ge
