Mn4 Si4 Tc8
1.0
  5.901101  0.000000  0.000000
  0.000000  5.901101  0.000000
  0.000000  0.000000  6.081735
Mn Si Tc
4 4 8
direct
0.000000 0.500000 0.500000 Mn
0.000000 0.000000 0.000000 Mn
0.500000 0.500000 0.000000 Mn
0.500000 0.000000 0.500000 Mn
0.000000 0.500000 0.000000 Si
0.000000 0.000000 0.500000 Si
0.500000 0.500000 0.500000 Si
0.500000 0.000000 0.000000 Si
0.250000 0.250000 0.250000 Tc
0.250000 0.250000 0.750000 Tc
0.250000 0.750000 0.750000 Tc
0.250000 0.750000 0.250000 Tc
0.750000 0.250000 0.750000 Tc
0.750000 0.250000 0.250000 Tc
0.750000 0.750000 0.250000 Tc
0.750000 0.750000 0.750000 Tc
