Zr4 Co4 As4
1.0
  6.134487  0.000000  0.000000
  0.000000  6.134487  0.000000
  0.000000  0.000000  6.322265
Zr Co As
4 4 4
direct
0.250000 0.250000 0.250000 Zr
0.250000 0.750000 0.750000 Zr
0.750000 0.250000 0.750000 Zr
0.750000 0.750000 0.250000 Zr
0.000000 0.000000 0.500000 Co
0.000000 0.500000 0.000000 Co
0.500000 0.000000 0.000000 Co
0.500000 0.500000 0.500000 Co
0.000000 0.000000 0.000000 As
0.000000 0.500000 0.500000 As
0.500000 0.000000 0.500000 As
0.500000 0.500000 0.000000 As
