Li4 Co8 Si4
1.0
  5.420994  0.000000  0.000000
  0.000000  5.420994  0.000000
  0.000000  0.000000  5.586932
Li Co Si
4 8 4
direct
0.000000 0.000000 0.000000 Li
0.000000 0.500000 0.500000 Li
0.500000 0.000000 0.500000 Li
0.500000 0.500000 0.000000 Li
0.250000 0.750000 0.750000 Co
0.250000 0.750000 0.250000 Co
0.250000 0.250000 0.250000 Co
0.250000 0.250000 0.750000 Co
0.750000 0.750000 0.250000 Co
0.750000 0.750000 0.750000 Co
0.750000 0.250000 0.750000 Co
0.750000 0.250000 0.250000 Co
0.000000 0.000000 0.500000 Si
0.000000 0.500000 0.000000 Si
0.500000 0.000000 0.000000 Si
0.500000 0.500000 0.500000 Si
