Ta8 Fe4 Os4
1.0
  6.236535  0.000000  0.000000
  0.000000  6.236535  0.000000
  0.000000  0.000000  6.427436
Ta Fe Os
8 4 4
direct
0.250000 0.750000 0.750000 Ta
0.250000 0.750000 0.250000 Ta
0.250000 0.250000 0.250000 Ta
0.250000 0.250000 0.750000 Ta
0.750000 0.750000 0.250000 Ta
0.750000 0.750000 0.750000 Ta
0.750000 0.250000 0.750000 Ta
0.750000 0.250000 0.250000 Ta
0.000000 0.000000 0.000000 Fe
0.000000 0.500000 0.500000 Fe
0.500000 0.000000 0.500000 Fe
0.500000 0.500000 0.000000 Fe
0.500000 0.500000 0.500000 Os
0.500000 0.000000 0.000000 Os
0.000000 0.500000 0.000000 Os
0.000000 0.000000 0.500000 Os
