Mn4 Nb4 As4
1.0
  5.909596  0.000000  0.000000
  0.000000  5.909596  0.000000
  0.000000  0.000000  6.090490
Mn Nb As
4 4 4
direct
0.000000 0.000000 0.500000 Mn
0.000000 0.500000 0.000000 Mn
0.500000 0.000000 0.000000 Mn
0.500000 0.500000 0.500000 Mn
0.250000 0.250000 0.250000 Nb
0.250000 0.750000 0.750000 Nb
0.750000 0.250000 0.750000 Nb
0.750000 0.750000 0.250000 Nb
0.000000 0.000000 0.000000 As
0.000000 0.500000 0.500000 As
0.500000 0.000000 0.500000 As
0.500000 0.500000 0.000000 As
