Mn8 Al4 V4
1.0
  5.758743  0.000000  0.000000
  0.000000  5.758743  0.000000
  0.000000  0.000000  5.935019
Mn Al V
8 4 4
direct
0.250000 0.750000 0.250000 Mn
0.250000 0.750000 0.750000 Mn
0.250000 0.250000 0.750000 Mn
0.250000 0.250000 0.250000 Mn
0.750000 0.750000 0.750000 Mn
0.750000 0.750000 0.250000 Mn
0.750000 0.250000 0.250000 Mn
0.750000 0.250000 0.750000 Mn
0.000000 0.000000 0.000000 Al
0.000000 0.500000 0.500000 Al
0.500000 0.000000 0.500000 Al
0.500000 0.500000 0.000000 Al
0.000000 0.000000 0.500000 V
0.000000 0.500000 0.000000 V
0.500000 0.000000 0.000000 V
0.500000 0.500000 0.500000 V
