Mn3 S3
1.0
  1.959223 -3.427750  0.000000
  1.979013  3.393472  0.000000
  0.000000  0.000000  9.545507
Mn S
3 3
direct
0.000000 0.000000 0.999110 Mn
0.666667 0.333333 0.332443 Mn
0.333333 0.666667 0.665776 Mn
0.000000 0.000000 0.750890 S
0.666667 0.333333 0.084223 S
0.333333 0.666667 0.417557 S
