Ta8 Cr16
1.0
  6.868010  0.000000  0.000000
  0.000000  6.868010  0.000000
  0.000000  0.000000  7.078241
Ta Cr
8 16
direct
0.125000 0.125000 0.125000 Ta
0.875000 0.875000 0.875000 Ta
0.125000 0.625000 0.625000 Ta
0.875000 0.375000 0.375000 Ta
0.625000 0.125000 0.625000 Ta
0.375000 0.875000 0.375000 Ta
0.625000 0.625000 0.125000 Ta
0.375000 0.375000 0.875000 Ta
0.750000 0.000000 0.250000 Cr
0.500000 0.750000 0.750000 Cr
0.500000 0.000000 0.000000 Cr
0.750000 0.750000 0.500000 Cr
0.750000 0.500000 0.750000 Cr
0.500000 0.250000 0.250000 Cr
0.500000 0.500000 0.500000 Cr
0.750000 0.250000 0.000000 Cr
0.250000 0.000000 0.750000 Cr
0.000000 0.750000 0.250000 Cr
0.000000 0.000000 0.500000 Cr
0.250000 0.750000 0.000000 Cr
0.250000 0.500000 0.250000 Cr
0.000000 0.250000 0.750000 Cr
0.000000 0.500000 0.000000 Cr
0.250000 0.250000 0.500000 Cr
