Fe3 Rh1 N1
1.0
  3.813400  0.000000  0.000000
  0.000000  3.813400  0.000000
  0.000000  0.000000  3.930129
Fe Rh N
3 1 1
direct
0.000000 0.500000 0.500000 Fe
0.500000 0.500000 0.000000 Fe
0.500000 0.000000 0.500000 Fe
0.000000 0.000000 0.000000 Rh
0.500000 0.500000 0.500000 N
