Al4 Cr4 Ni8
1.0
  5.729628  0.000000  0.000000
  0.000000  5.729628  0.000000
  0.000000  0.000000  5.905013
Al Cr Ni
4 4 8
direct
0.000000 0.000000 0.000000 Al
0.000000 0.500000 0.500000 Al
0.500000 0.000000 0.500000 Al
0.500000 0.500000 0.000000 Al
0.000000 0.000000 0.500000 Cr
0.000000 0.500000 0.000000 Cr
0.500000 0.000000 0.000000 Cr
0.500000 0.500000 0.500000 Cr
0.250000 0.750000 0.750000 Ni
0.750000 0.250000 0.250000 Ni
0.250000 0.250000 0.250000 Ni
0.750000 0.750000 0.750000 Ni
0.750000 0.750000 0.250000 Ni
0.250000 0.250000 0.750000 Ni
0.750000 0.250000 0.750000 Ni
0.250000 0.750000 0.250000 Ni
