Cr6 Ga2
1.0
  4.551268  0.000000  0.000000
  0.000000  4.551268  0.000000
  0.000000  0.000000  4.690583
Cr Ga
6 2
direct
0.250000 0.000000 0.500000 Cr
0.750000 0.000000 0.500000 Cr
0.000000 0.500000 0.250000 Cr
0.000000 0.500000 0.750000 Cr
0.500000 0.750000 0.000000 Cr
0.500000 0.250000 0.000000 Cr
0.000000 0.000000 0.000000 Ga
0.500000 0.500000 0.500000 Ga
