Mn8 Al4 Re4
1.0
  5.784143  0.000000  0.000000
  0.000000  5.784143  0.000000
  0.000000  0.000000  5.961197
Mn Al Re
8 4 4
direct
0.750000 0.250000 0.250000 Mn
0.750000 0.250000 0.750000 Mn
0.750000 0.750000 0.750000 Mn
0.750000 0.750000 0.250000 Mn
0.250000 0.250000 0.750000 Mn
0.250000 0.250000 0.250000 Mn
0.250000 0.750000 0.250000 Mn
0.250000 0.750000 0.750000 Mn
0.000000 0.000000 0.500000 Al
0.000000 0.500000 0.000000 Al
0.500000 0.000000 0.000000 Al
0.500000 0.500000 0.500000 Al
0.000000 0.000000 0.000000 Re
0.000000 0.500000 0.500000 Re
0.500000 0.000000 0.500000 Re
0.500000 0.500000 0.000000 Re
