Ni4 N4
1.0
  4.271875  0.000000  0.000000
  0.000000  4.271875  0.000000
  0.000000  0.000000  4.402637
Ni N
4 4
direct
0.000000 0.000000 0.000000 Ni
0.000000 0.500000 0.500000 Ni
0.500000 0.000000 0.500000 Ni
0.500000 0.500000 0.000000 Ni
0.250000 0.750000 0.750000 N
0.250000 0.250000 0.250000 N
0.750000 0.750000 0.250000 N
0.750000 0.250000 0.750000 N
