Fe8 Co4 Ge4
1.0
  5.669820  0.000000  0.000000
  0.000000  5.669820  0.000000
  0.000000  0.000000  5.843374
Fe Co Ge
8 4 4
direct
0.750000 0.250000 0.750000 Fe
0.750000 0.250000 0.250000 Fe
0.750000 0.750000 0.250000 Fe
0.750000 0.750000 0.750000 Fe
0.250000 0.250000 0.250000 Fe
0.250000 0.250000 0.750000 Fe
0.250000 0.750000 0.750000 Fe
0.250000 0.750000 0.250000 Fe
0.000000 0.000000 0.000000 Co
0.000000 0.500000 0.500000 Co
0.500000 0.000000 0.500000 Co
0.500000 0.500000 0.000000 Co
0.500000 0.000000 0.000000 Ge
0.500000 0.500000 0.500000 Ge
0.000000 0.000000 0.500000 Ge
0.000000 0.500000 0.000000 Ge
