Mn4 Sb4 Ru8
1.0
  6.179116  0.000000  0.000000
  0.000000  6.179116  0.000000
  0.000000  0.000000  6.368259
Mn Sb Ru
4 4 8
direct
0.000000 0.500000 0.500000 Mn
0.000000 0.000000 0.000000 Mn
0.500000 0.500000 0.000000 Mn
0.500000 0.000000 0.500000 Mn
0.000000 0.500000 0.000000 Sb
0.000000 0.000000 0.500000 Sb
0.500000 0.500000 0.500000 Sb
0.500000 0.000000 0.000000 Sb
0.250000 0.250000 0.250000 Ru
0.250000 0.250000 0.750000 Ru
0.250000 0.750000 0.750000 Ru
0.250000 0.750000 0.250000 Ru
0.750000 0.250000 0.750000 Ru
0.750000 0.250000 0.250000 Ru
0.750000 0.750000 0.250000 Ru
0.750000 0.750000 0.750000 Ru
