Sc1 Ni1
1.0
  3.135047  0.000000  0.000000
  0.000000  3.135047  0.000000
  0.000000  0.000000  3.231011
Sc Ni
1 1
direct
0.500000 0.500000 0.500000 Sc
0.000000 0.000000 0.000000 Ni
