Fe4 N1
1.0
  3.636936  0.000000  0.000000
  0.000000  3.636936  0.000000
  0.000000  0.000000  3.748263
Fe N
4 1
direct
0.000000 0.500000 0.500000 Fe
0.500000 0.500000 0.000000 Fe
0.500000 0.000000 0.500000 Fe
0.000000 0.000000 0.000000 Fe
0.500000 0.500000 0.500000 N
