Ni12 Bi8 S8
1.0
  7.955049  0.000000  0.000000
  0.000000  7.955049  0.000000
  0.000000  0.000000  8.198554
Ni Bi S
12 8 8
direct
0.500000 0.750000 0.767687 Ni
0.000000 0.750000 0.232313 Ni
0.232313 0.000000 0.750000 Ni
0.750000 0.232313 0.000000 Ni
0.767687 0.500000 0.750000 Ni
0.750000 0.767687 0.500000 Ni
0.000000 0.250000 0.267687 Ni
0.500000 0.250000 0.732313 Ni
0.732313 0.500000 0.250000 Ni
0.250000 0.732313 0.500000 Ni
0.267687 0.000000 0.250000 Ni
0.250000 0.267687 0.000000 Ni
0.004180 0.004180 0.004180 Bi
0.504180 0.495820 0.995820 Bi
0.995820 0.504180 0.495820 Bi
0.495820 0.995820 0.504180 Bi
0.504180 0.504180 0.504180 Bi
0.004180 0.995820 0.495820 Bi
0.495820 0.004180 0.995820 Bi
0.995820 0.495820 0.004180 Bi
0.729845 0.770155 0.229845 S
0.770155 0.229845 0.729845 S
0.229845 0.729845 0.770155 S
0.770155 0.770155 0.770155 S
0.229845 0.270155 0.729845 S
0.270155 0.729845 0.229845 S
0.729845 0.229845 0.270155 S
0.270155 0.270155 0.270155 S
