Mn4 V12
1.0
  5.803108  0.000000  0.000000
  0.000000  5.803108  0.000000
  0.000000  0.000000  5.980742
Mn V
4 12
direct
0.000000 0.000000 0.500000 Mn
0.000000 0.500000 0.000000 Mn
0.500000 0.000000 0.000000 Mn
0.500000 0.500000 0.500000 Mn
0.250000 0.750000 0.750000 V
0.250000 0.750000 0.250000 V
0.000000 0.000000 0.000000 V
0.250000 0.250000 0.250000 V
0.250000 0.250000 0.750000 V
0.000000 0.500000 0.500000 V
0.750000 0.750000 0.250000 V
0.750000 0.750000 0.750000 V
0.500000 0.000000 0.500000 V
0.750000 0.250000 0.750000 V
0.750000 0.250000 0.250000 V
0.500000 0.500000 0.000000 V
