Cr4 Ge4
1.0
  4.719868  0.000000  0.000000
  0.000000  4.719868  0.000000
  0.000000  0.000000  4.864343
Cr Ge
4 4
direct
0.137130 0.137130 0.137130 Cr
0.362870 0.862870 0.637130 Cr
0.637130 0.362870 0.862870 Cr
0.862870 0.637130 0.362870 Cr
0.844875 0.844875 0.844875 Ge
0.655125 0.155125 0.344875 Ge
0.344875 0.655125 0.155125 Ge
0.155125 0.344875 0.655125 Ge
