Cr4 Ir4 Ru4
1.0
  5.784651  0.000000  0.000000
  0.000000  5.784651  0.000000
  0.000000  0.000000  5.961720
Cr Ir Ru
4 4 4
direct
0.000000 0.000000 0.000000 Cr
0.000000 0.500000 0.500000 Cr
0.500000 0.000000 0.500000 Cr
0.500000 0.500000 0.000000 Cr
0.000000 0.000000 0.500000 Ir
0.000000 0.500000 0.000000 Ir
0.500000 0.000000 0.000000 Ir
0.500000 0.500000 0.500000 Ir
0.750000 0.250000 0.250000 Ru
0.750000 0.750000 0.750000 Ru
0.250000 0.250000 0.750000 Ru
0.250000 0.750000 0.250000 Ru
