Al8 Co4 Ir4
1.0
  5.845202  0.000000  0.000000
  0.000000  5.845202  0.000000
  0.000000  0.000000  6.024124
Al Co Ir
8 4 4
direct
0.250000 0.750000 0.250000 Al
0.250000 0.750000 0.750000 Al
0.250000 0.250000 0.750000 Al
0.250000 0.250000 0.250000 Al
0.750000 0.750000 0.750000 Al
0.750000 0.750000 0.250000 Al
0.750000 0.250000 0.250000 Al
0.750000 0.250000 0.750000 Al
0.500000 0.000000 0.500000 Co
0.500000 0.500000 0.000000 Co
0.000000 0.000000 0.000000 Co
0.000000 0.500000 0.500000 Co
0.000000 0.500000 0.000000 Ir
0.000000 0.000000 0.500000 Ir
0.500000 0.500000 0.500000 Ir
0.500000 0.000000 0.000000 Ir
