Ta8 Cr4 Os4
1.0
  6.231337  0.000000  0.000000
  0.000000  6.231337  0.000000
  0.000000  0.000000  6.422079
Ta Cr Os
8 4 4
direct
0.250000 0.250000 0.250000 Ta
0.250000 0.250000 0.750000 Ta
0.250000 0.750000 0.750000 Ta
0.250000 0.750000 0.250000 Ta
0.750000 0.250000 0.750000 Ta
0.750000 0.250000 0.250000 Ta
0.750000 0.750000 0.250000 Ta
0.750000 0.750000 0.750000 Ta
0.000000 0.500000 0.500000 Cr
0.000000 0.000000 0.000000 Cr
0.500000 0.500000 0.000000 Cr
0.500000 0.000000 0.500000 Cr
0.000000 0.500000 0.000000 Os
0.000000 0.000000 0.500000 Os
0.500000 0.500000 0.500000 Os
0.500000 0.000000 0.000000 Os
