Mn8 In4 Co4
1.0
  6.112300  0.000000  0.000000
  0.000000  6.112300  0.000000
  0.000000  0.000000  6.299398
Mn In Co
8 4 4
direct
0.000000 0.000000 0.000000 Mn
0.250000 0.750000 0.750000 Mn
0.000000 0.500000 0.500000 Mn
0.250000 0.250000 0.250000 Mn
0.500000 0.000000 0.500000 Mn
0.750000 0.750000 0.250000 Mn
0.500000 0.500000 0.000000 Mn
0.750000 0.250000 0.750000 Mn
0.750000 0.250000 0.250000 In
0.750000 0.750000 0.750000 In
0.250000 0.250000 0.750000 In
0.250000 0.750000 0.250000 In
0.000000 0.000000 0.500000 Co
0.000000 0.500000 0.000000 Co
0.500000 0.000000 0.000000 Co
0.500000 0.500000 0.500000 Co
