Be4 Fe8 Si4
1.0
  5.347927  0.000000  0.000000
  0.000000  5.347927  0.000000
  0.000000  0.000000  5.511627
Be Fe Si
4 8 4
direct
0.000000 0.500000 0.500000 Be
0.000000 0.000000 0.000000 Be
0.500000 0.500000 0.000000 Be
0.500000 0.000000 0.500000 Be
0.250000 0.250000 0.750000 Fe
0.250000 0.250000 0.250000 Fe
0.250000 0.750000 0.250000 Fe
0.250000 0.750000 0.750000 Fe
0.750000 0.250000 0.250000 Fe
0.750000 0.250000 0.750000 Fe
0.750000 0.750000 0.750000 Fe
0.750000 0.750000 0.250000 Fe
0.000000 0.500000 0.000000 Si
0.000000 0.000000 0.500000 Si
0.500000 0.500000 0.500000 Si
0.500000 0.000000 0.000000 Si
