Sc8 Co4 Os4
1.0
  6.307707  0.000000  0.000000
  0.000000  6.307707  0.000000
  0.000000  0.000000  6.500787
Sc Co Os
8 4 4
direct
0.750000 0.250000 0.250000 Sc
0.750000 0.250000 0.750000 Sc
0.750000 0.750000 0.750000 Sc
0.750000 0.750000 0.250000 Sc
0.250000 0.250000 0.750000 Sc
0.250000 0.250000 0.250000 Sc
0.250000 0.750000 0.250000 Sc
0.250000 0.750000 0.750000 Sc
0.000000 0.000000 0.500000 Co
0.000000 0.500000 0.000000 Co
0.500000 0.000000 0.000000 Co
0.500000 0.500000 0.500000 Co
0.500000 0.500000 0.000000 Os
0.500000 0.000000 0.500000 Os
0.000000 0.500000 0.500000 Os
0.000000 0.000000 0.000000 Os
