Cr1 Rh3
1.0
  3.770127  0.000000  0.000000
  0.000000  3.770127  0.000000
  0.000000  0.000000  3.885531
Cr Rh
1 3
direct
0.000000 0.000000 0.000000 Cr
0.000000 0.500000 0.500000 Rh
0.500000 0.500000 0.000000 Rh
0.500000 0.000000 0.500000 Rh
