Mn1 Pt3
1.0
  3.896726  0.000000  0.000000
  0.000000  3.896726  0.000000
  0.000000  0.000000  4.016006
Mn Pt
1 3
direct
0.000000 0.000000 0.000000 Mn
0.000000 0.500000 0.500000 Pt
0.500000 0.500000 0.000000 Pt
0.500000 0.000000 0.500000 Pt
