Be8 Ni4 Ir4
1.0
  5.370502  0.000000  0.000000
  0.000000  5.370502  0.000000
  0.000000  0.000000  5.534894
Be Ni Ir
8 4 4
direct
0.250000 0.750000 0.250000 Be
0.250000 0.750000 0.750000 Be
0.250000 0.250000 0.750000 Be
0.250000 0.250000 0.250000 Be
0.750000 0.750000 0.750000 Be
0.750000 0.750000 0.250000 Be
0.750000 0.250000 0.250000 Be
0.750000 0.250000 0.750000 Be
0.000000 0.000000 0.500000 Ni
0.000000 0.500000 0.000000 Ni
0.500000 0.000000 0.000000 Ni
0.500000 0.500000 0.500000 Ni
0.000000 0.000000 0.000000 Ir
0.000000 0.500000 0.500000 Ir
0.500000 0.000000 0.500000 Ir
0.500000 0.500000 0.000000 Ir
