Zr8 Co4 Tc4
1.0
  6.447496  0.000000  0.000000
  0.000000  6.447496  0.000000
  0.000000  0.000000  6.644855
Zr Co Tc
8 4 4
direct
0.250000 0.250000 0.250000 Zr
0.250000 0.250000 0.750000 Zr
0.250000 0.750000 0.750000 Zr
0.250000 0.750000 0.250000 Zr
0.750000 0.250000 0.750000 Zr
0.750000 0.250000 0.250000 Zr
0.750000 0.750000 0.250000 Zr
0.750000 0.750000 0.750000 Zr
0.000000 0.500000 0.500000 Co
0.000000 0.000000 0.000000 Co
0.500000 0.500000 0.000000 Co
0.500000 0.000000 0.500000 Co
0.000000 0.500000 0.000000 Tc
0.000000 0.000000 0.500000 Tc
0.500000 0.500000 0.500000 Tc
0.500000 0.000000 0.000000 Tc
