Ni4 P4 S4
1.0
  5.480857  0.000000  0.000000
  0.000000  5.480857  0.000000
  0.000000  0.000000  5.648627
Ni P S
4 4 4
direct
0.005295 0.005295 0.005295 Ni
0.494705 0.994705 0.505295 Ni
0.505295 0.494705 0.994705 Ni
0.994705 0.505295 0.494705 Ni
0.612695 0.612695 0.612695 P
0.887305 0.387305 0.112695 P
0.112695 0.887305 0.387305 P
0.387305 0.112695 0.887305 P
0.387965 0.387965 0.387965 S
0.112035 0.612035 0.887965 S
0.887965 0.112035 0.612035 S
0.612035 0.887965 0.112035 S
