Li4 Al4 Ni8
1.0
  5.629333  0.000000  0.000000
  0.000000  5.629333  0.000000
  0.000000  0.000000  5.801648
Li Al Ni
4 4 8
direct
0.000000 0.000000 0.000000 Li
0.000000 0.500000 0.500000 Li
0.500000 0.000000 0.500000 Li
0.500000 0.500000 0.000000 Li
0.500000 0.500000 0.500000 Al
0.500000 0.000000 0.000000 Al
0.000000 0.500000 0.000000 Al
0.000000 0.000000 0.500000 Al
0.750000 0.250000 0.250000 Ni
0.750000 0.250000 0.750000 Ni
0.750000 0.750000 0.750000 Ni
0.750000 0.750000 0.250000 Ni
0.250000 0.250000 0.750000 Ni
0.250000 0.250000 0.250000 Ni
0.250000 0.750000 0.250000 Ni
0.250000 0.750000 0.750000 Ni
