Mn4 Sb4 Rh4
1.0
  6.067624  0.000000  0.000000
  0.000000  6.067624  0.000000
  0.000000  0.000000  6.253355
Mn Sb Rh
4 4 4
direct
0.000000 0.000000 0.000000 Mn
0.000000 0.500000 0.500000 Mn
0.500000 0.000000 0.500000 Mn
0.500000 0.500000 0.000000 Mn
0.750000 0.250000 0.250000 Sb
0.750000 0.750000 0.750000 Sb
0.250000 0.250000 0.750000 Sb
0.250000 0.750000 0.250000 Sb
0.000000 0.000000 0.500000 Rh
0.000000 0.500000 0.000000 Rh
0.500000 0.000000 0.000000 Rh
0.500000 0.500000 0.500000 Rh
