Ti8 Re4 Ni4
1.0
  6.075150  0.000000  0.000000
  0.000000  6.075150  0.000000
  0.000000  0.000000  6.261111
Ti Re Ni
8 4 4
direct
0.250000 0.250000 0.750000 Ti
0.250000 0.250000 0.250000 Ti
0.250000 0.750000 0.250000 Ti
0.250000 0.750000 0.750000 Ti
0.750000 0.250000 0.250000 Ti
0.750000 0.250000 0.750000 Ti
0.750000 0.750000 0.750000 Ti
0.750000 0.750000 0.250000 Ti
0.000000 0.500000 0.000000 Re
0.000000 0.000000 0.500000 Re
0.500000 0.500000 0.500000 Re
0.500000 0.000000 0.000000 Re
0.000000 0.500000 0.500000 Ni
0.000000 0.000000 0.000000 Ni
0.500000 0.500000 0.000000 Ni
0.500000 0.000000 0.500000 Ni
