Fe12 Si4
1.0
  5.546539  0.000000  0.000000
  0.000000  5.546539  0.000000
  0.000000  0.000000  5.716320
Fe Si
12 4
direct
0.250000 0.250000 0.250000 Fe
0.000000 0.500000 0.000000 Fe
0.250000 0.250000 0.750000 Fe
0.250000 0.750000 0.750000 Fe
0.000000 0.000000 0.500000 Fe
0.250000 0.750000 0.250000 Fe
0.750000 0.250000 0.750000 Fe
0.500000 0.500000 0.500000 Fe
0.750000 0.250000 0.250000 Fe
0.750000 0.750000 0.250000 Fe
0.500000 0.000000 0.000000 Fe
0.750000 0.750000 0.750000 Fe
0.000000 0.500000 0.500000 Si
0.000000 0.000000 0.000000 Si
0.500000 0.500000 0.000000 Si
0.500000 0.000000 0.500000 Si
