Fe21 Mo2 C6
1.0
  7.346244  0.000000  0.000000
  3.706351 -6.366188  0.000000
  3.709875 -2.143356 -6.185917
Fe Mo C
21 2 6
direct
0.000071 0.000283 0.340134 Fe
0.999708 0.340286 0.000306 Fe
0.616287 0.616179 0.151878 Fe
0.340359 0.999805 0.659640 Fe
0.616461 0.151609 0.616055 Fe
0.999675 0.340281 0.659744 Fe
0.999683 0.659442 0.000392 Fe
0.659969 0.340445 0.999787 Fe
0.999609 0.659673 0.340399 Fe
0.659518 0.999806 0.000270 Fe
0.000114 0.000353 0.659310 Fe
0.340592 0.659799 0.999812 Fe
0.384086 0.383863 0.383577 Fe
0.000097 0.000258 0.999886 Fe
0.659726 0.999713 0.340344 Fe
0.384221 0.848280 0.383667 Fe
0.616247 0.616109 0.615728 Fe
0.848160 0.384124 0.383790 Fe
0.340419 0.999830 0.000207 Fe
0.151524 0.616413 0.616119 Fe
0.384010 0.383785 0.848505 Fe
0.249545 0.249615 0.250272 Mo
0.749576 0.749829 0.750423 Mo
0.276973 0.276909 0.723138 C
0.723011 0.277189 0.722767 C
0.277234 0.723013 0.722770 C
0.723131 0.277218 0.276968 C
0.277232 0.723126 0.276925 C
0.722764 0.722765 0.277187 C
