Hf4 Si4 Ni4
1.0
  5.812877  0.000000  0.000000
  0.000000  5.812877  0.000000
  0.000000  0.000000  5.990810
Hf Si Ni
4 4 4
direct
0.000000 0.000000 0.000000 Hf
0.000000 0.500000 0.500000 Hf
0.500000 0.000000 0.500000 Hf
0.500000 0.500000 0.000000 Hf
0.250000 0.750000 0.750000 Si
0.250000 0.250000 0.250000 Si
0.750000 0.750000 0.250000 Si
0.750000 0.250000 0.750000 Si
0.000000 0.000000 0.500000 Ni
0.000000 0.500000 0.000000 Ni
0.500000 0.000000 0.000000 Ni
0.500000 0.500000 0.500000 Ni
