Mn4 Sb4 Rh4
1.0
  5.969199  0.000000  0.000000
  0.000000  5.969199  0.000000
  0.000000  0.000000  6.151917
Mn Sb Rh
4 4 4
direct
0.250000 0.750000 0.750000 Mn
0.250000 0.250000 0.250000 Mn
0.750000 0.750000 0.250000 Mn
0.750000 0.250000 0.750000 Mn
0.000000 0.000000 0.000000 Sb
0.000000 0.500000 0.500000 Sb
0.500000 0.000000 0.500000 Sb
0.500000 0.500000 0.000000 Sb
0.500000 0.000000 0.000000 Rh
0.500000 0.500000 0.500000 Rh
0.000000 0.000000 0.500000 Rh
0.000000 0.500000 0.000000 Rh
