Ti8 Mn4 Ru4
1.0
  6.014153  0.000000  0.000000
  0.000000  6.014153  0.000000
  0.000000  0.000000  6.198247
Ti Mn Ru
8 4 4
direct
0.250000 0.250000 0.250000 Ti
0.250000 0.250000 0.750000 Ti
0.250000 0.750000 0.750000 Ti
0.250000 0.750000 0.250000 Ti
0.750000 0.250000 0.750000 Ti
0.750000 0.250000 0.250000 Ti
0.750000 0.750000 0.250000 Ti
0.750000 0.750000 0.750000 Ti
0.000000 0.500000 0.500000 Mn
0.000000 0.000000 0.000000 Mn
0.500000 0.500000 0.000000 Mn
0.500000 0.000000 0.500000 Mn
0.500000 0.000000 0.000000 Ru
0.500000 0.500000 0.500000 Ru
0.000000 0.000000 0.500000 Ru
0.000000 0.500000 0.000000 Ru
