Ti8 Ni4 Ir4
1.0
  6.065711  0.000000  0.000000
  0.000000  6.065711  0.000000
  0.000000  0.000000  6.251384
Ti Ni Ir
8 4 4
direct
0.750000 0.750000 0.250000 Ti
0.750000 0.250000 0.250000 Ti
0.750000 0.250000 0.750000 Ti
0.750000 0.750000 0.750000 Ti
0.250000 0.750000 0.750000 Ti
0.250000 0.250000 0.750000 Ti
0.250000 0.250000 0.250000 Ti
0.250000 0.750000 0.250000 Ti
0.000000 0.500000 0.000000 Ni
0.000000 0.000000 0.500000 Ni
0.500000 0.500000 0.500000 Ni
0.500000 0.000000 0.000000 Ni
0.500000 0.000000 0.500000 Ir
0.500000 0.500000 0.000000 Ir
0.000000 0.000000 0.000000 Ir
0.000000 0.500000 0.500000 Ir
