Fe4 Cu8 S8
1.0
  7.550432  0.000000  0.000000
  3.811827 -6.551811  0.000000
  3.811874 -2.198175 -6.372249
Fe Cu S
4 8 8
direct
0.122371 0.625800 0.625831 Fe
0.625872 0.122481 0.625736 Fe
0.625838 0.625718 0.122568 Fe
0.625953 0.625784 0.625792 Fe
0.370571 0.888831 0.370076 Cu
0.640543 0.119803 0.119903 Cu
0.370486 0.370166 0.888886 Cu
0.888690 0.370449 0.370215 Cu
0.370672 0.370421 0.370181 Cu
0.119772 0.640770 0.119726 Cu
0.119762 0.119682 0.640847 Cu
0.119778 0.119764 0.119849 Cu
0.993503 0.506353 0.506429 S
0.506077 0.993322 0.506372 S
0.505965 0.994011 0.994018 S
0.994154 0.506264 0.993488 S
0.499703 0.500385 0.500414 S
0.994210 0.993545 0.506246 S
0.999903 0.000064 0.000148 S
0.506177 0.506388 0.993274 S
