Ta1 Co3
1.0
  3.601633  0.000000  0.000000
  0.000000  3.601633  0.000000
  0.000000  0.000000  3.711879
Ta Co
1 3
direct
0.000000 0.000000 0.000000 Ta
0.000000 0.500000 0.500000 Co
0.500000 0.500000 0.000000 Co
0.500000 0.000000 0.500000 Co
