Hf8 Fe4 Ir4
1.0
  6.396713  0.000000  0.000000
  0.000000  6.396713  0.000000
  0.000000  0.000000  6.592517
Hf Fe Ir
8 4 4
direct
0.750000 0.250000 0.250000 Hf
0.750000 0.250000 0.750000 Hf
0.750000 0.750000 0.750000 Hf
0.750000 0.750000 0.250000 Hf
0.250000 0.250000 0.750000 Hf
0.250000 0.250000 0.250000 Hf
0.250000 0.750000 0.250000 Hf
0.250000 0.750000 0.750000 Hf
0.000000 0.000000 0.500000 Fe
0.000000 0.500000 0.000000 Fe
0.500000 0.000000 0.000000 Fe
0.500000 0.500000 0.500000 Fe
0.500000 0.500000 0.000000 Ir
0.500000 0.000000 0.500000 Ir
0.000000 0.500000 0.500000 Ir
0.000000 0.000000 0.000000 Ir
