Ti1 Fe1
1.0
  2.930179  0.000000  0.000000
  0.000000  2.930179  0.000000
  0.000000  0.000000  3.019872
Ti Fe
1 1
direct
0.500000 0.500000 0.500000 Ti
0.000000 0.000000 0.000000 Fe
