Ti4 Mn8 W4
1.0
  5.904471  0.000000  0.000000
  0.000000  5.904471  0.000000
  0.000000  0.000000  6.085208
Ti Mn W
4 8 4
direct
0.000000 0.000000 0.500000 Ti
0.000000 0.500000 0.000000 Ti
0.500000 0.000000 0.000000 Ti
0.500000 0.500000 0.500000 Ti
0.750000 0.250000 0.250000 Mn
0.750000 0.250000 0.750000 Mn
0.750000 0.750000 0.750000 Mn
0.750000 0.750000 0.250000 Mn
0.250000 0.250000 0.750000 Mn
0.250000 0.250000 0.250000 Mn
0.250000 0.750000 0.250000 Mn
0.250000 0.750000 0.750000 Mn
0.000000 0.000000 0.000000 W
0.000000 0.500000 0.500000 W
0.500000 0.000000 0.500000 W
0.500000 0.500000 0.000000 W
