Cr3 Rh1 N1
1.0
  3.781209  0.000000  0.000000
  0.000000  3.781209  0.000000
  0.000000  0.000000  3.896952
Cr Rh N
3 1 1
direct
0.500000 0.000000 0.500000 Cr
0.000000 0.500000 0.500000 Cr
0.500000 0.500000 0.000000 Cr
0.000000 0.000000 0.000000 Rh
0.500000 0.500000 0.500000 N
