Ti4 In4 Ni8
1.0
  6.065067  0.000000  0.000000
  0.000000  6.065067  0.000000
  0.000000  0.000000  6.250719
Ti In Ni
4 4 8
direct
0.500000 0.000000 0.000000 Ti
0.500000 0.500000 0.500000 Ti
0.000000 0.000000 0.500000 Ti
0.000000 0.500000 0.000000 Ti
0.000000 0.000000 0.000000 In
0.000000 0.500000 0.500000 In
0.500000 0.000000 0.500000 In
0.500000 0.500000 0.000000 In
0.250000 0.750000 0.250000 Ni
0.750000 0.250000 0.750000 Ni
0.250000 0.250000 0.750000 Ni
0.750000 0.750000 0.250000 Ni
0.750000 0.750000 0.750000 Ni
0.250000 0.250000 0.250000 Ni
0.750000 0.250000 0.250000 Ni
0.250000 0.750000 0.750000 Ni
