Ti4 Al4 Fe8
1.0
  5.771606  0.000000  0.000000
  0.000000  5.771606  0.000000
  0.000000  0.000000  5.948276
Ti Al Fe
4 4 8
direct
0.000000 0.500000 0.000000 Ti
0.000000 0.000000 0.500000 Ti
0.500000 0.500000 0.500000 Ti
0.500000 0.000000 0.000000 Ti
0.000000 0.000000 0.000000 Al
0.000000 0.500000 0.500000 Al
0.500000 0.000000 0.500000 Al
0.500000 0.500000 0.000000 Al
0.250000 0.750000 0.750000 Fe
0.750000 0.250000 0.250000 Fe
0.250000 0.250000 0.250000 Fe
0.750000 0.750000 0.750000 Fe
0.750000 0.750000 0.250000 Fe
0.250000 0.250000 0.750000 Fe
0.750000 0.250000 0.750000 Fe
0.250000 0.750000 0.250000 Fe
