Ti4 Ga4 Fe8
1.0
  5.743585  0.000000  0.000000
  0.000000  5.743585  0.000000
  0.000000  0.000000  5.919397
Ti Ga Fe
4 4 8
direct
0.000000 0.000000 0.000000 Ti
0.000000 0.500000 0.500000 Ti
0.500000 0.000000 0.500000 Ti
0.500000 0.500000 0.000000 Ti
0.000000 0.000000 0.500000 Ga
0.000000 0.500000 0.000000 Ga
0.500000 0.000000 0.000000 Ga
0.500000 0.500000 0.500000 Ga
0.750000 0.250000 0.250000 Fe
0.750000 0.250000 0.750000 Fe
0.750000 0.750000 0.750000 Fe
0.750000 0.750000 0.250000 Fe
0.250000 0.250000 0.750000 Fe
0.250000 0.250000 0.250000 Fe
0.250000 0.750000 0.250000 Fe
0.250000 0.750000 0.750000 Fe
