Mn3 Ga1 C1
1.0
  4.576443  0.000000  0.000000
  0.000000  4.576443  0.000000
  0.000000  0.000000  4.716529
Mn Ga C
3 1 1
direct
0.000000 0.500000 0.500000 Mn
0.500000 0.500000 0.000000 Mn
0.500000 0.000000 0.500000 Mn
0.500000 0.500000 0.500000 Ga
0.000000 0.000000 0.000000 C
