Ga4 Fe4 Co8
1.0
  5.651441  0.000000  0.000000
  0.000000  5.651441  0.000000
  0.000000  0.000000  5.824432
Ga Fe Co
4 4 8
direct
0.000000 0.000000 0.500000 Ga
0.000000 0.500000 0.000000 Ga
0.500000 0.000000 0.000000 Ga
0.500000 0.500000 0.500000 Ga
0.000000 0.000000 0.000000 Fe
0.000000 0.500000 0.500000 Fe
0.500000 0.000000 0.500000 Fe
0.500000 0.500000 0.000000 Fe
0.750000 0.250000 0.250000 Co
0.750000 0.250000 0.750000 Co
0.750000 0.750000 0.750000 Co
0.750000 0.750000 0.250000 Co
0.250000 0.250000 0.750000 Co
0.250000 0.250000 0.250000 Co
0.250000 0.750000 0.250000 Co
0.250000 0.750000 0.750000 Co
