Fe3 Ge1
1.0
  3.598657  0.000000  0.000000
  0.000000  3.598657  0.000000
  0.000000  0.000000  3.708812
Fe Ge
3 1
direct
0.000000 0.500000 0.500000 Fe
0.500000 0.500000 0.000000 Fe
0.500000 0.000000 0.500000 Fe
0.000000 0.000000 0.000000 Ge
