Mn4 Ni4 As4
1.0
  9.937877  0.000000  0.000000
  0.000000  9.937877  0.000000
  0.000000  0.000000 10.242077
Mn Ni As
4 4 4
direct
0.000000 0.000000 0.000000 Mn
0.000000 0.500000 0.500000 Mn
0.500000 0.000000 0.500000 Mn
0.500000 0.500000 0.000000 Mn
0.750000 0.250000 0.750000 Ni
0.750000 0.750000 0.250000 Ni
0.250000 0.250000 0.250000 Ni
0.250000 0.750000 0.750000 Ni
0.500000 0.000000 0.000000 As
0.500000 0.500000 0.500000 As
0.000000 0.000000 0.500000 As
0.000000 0.500000 0.000000 As
