Ta4 Fe4 Ru8
1.0
  6.126512  0.000000  0.000000
  0.000000  6.126512  0.000000
  0.000000  0.000000  6.314046
Ta Fe Ru
4 4 8
direct
0.000000 0.000000 0.500000 Ta
0.000000 0.500000 0.000000 Ta
0.500000 0.000000 0.000000 Ta
0.500000 0.500000 0.500000 Ta
0.000000 0.000000 0.000000 Fe
0.000000 0.500000 0.500000 Fe
0.500000 0.000000 0.500000 Fe
0.500000 0.500000 0.000000 Fe
0.250000 0.750000 0.250000 Ru
0.250000 0.750000 0.750000 Ru
0.250000 0.250000 0.750000 Ru
0.250000 0.250000 0.250000 Ru
0.750000 0.750000 0.750000 Ru
0.750000 0.750000 0.250000 Ru
0.750000 0.250000 0.250000 Ru
0.750000 0.250000 0.750000 Ru
