Mn4 Ga4 Rh8
1.0
  6.010026  0.000000  0.000000
  0.000000  6.010026  0.000000
  0.000000  0.000000  6.193993
Mn Ga Rh
4 4 8
direct
0.000000 0.000000 0.000000 Mn
0.000000 0.500000 0.500000 Mn
0.500000 0.000000 0.500000 Mn
0.500000 0.500000 0.000000 Mn
0.500000 0.500000 0.500000 Ga
0.500000 0.000000 0.000000 Ga
0.000000 0.500000 0.000000 Ga
0.000000 0.000000 0.500000 Ga
0.750000 0.250000 0.750000 Rh
0.750000 0.250000 0.250000 Rh
0.750000 0.750000 0.250000 Rh
0.750000 0.750000 0.750000 Rh
0.250000 0.250000 0.250000 Rh
0.250000 0.250000 0.750000 Rh
0.250000 0.750000 0.750000 Rh
0.250000 0.750000 0.250000 Rh
