Zr16 Al4 Ni8
1.0
 -9.258608  0.000000  0.000000
 -4.674877 -8.018929  0.000000
 -4.675358 -2.699037  7.795364
Zr Al Ni
16 4 8
direct
0.393450 0.856640 0.393222 Zr
0.999919 0.999933 0.000052 Zr
0.606444 0.143473 0.143504 Zr
0.393422 0.856658 0.856477 Zr
0.606593 0.606647 0.143415 Zr
0.393451 0.393285 0.856588 Zr
0.606557 0.143293 0.606760 Zr
0.856551 0.856654 0.393273 Zr
0.856664 0.393362 0.393271 Zr
0.143471 0.606499 0.143445 Zr
0.143405 0.606618 0.606753 Zr
0.000016 0.000060 0.499921 Zr
0.999959 0.500071 0.000057 Zr
0.500001 0.999977 0.000097 Zr
0.856589 0.393331 0.856599 Zr
0.143478 0.143318 0.606623 Zr
0.499947 0.500004 0.000121 Al
0.000140 0.499964 0.499967 Al
0.500035 0.999917 0.499984 Al
0.500014 0.499952 0.499951 Al
0.197305 0.197263 0.908200 Ni
0.802745 0.091567 0.802913 Ni
0.197226 0.197230 0.197163 Ni
0.091399 0.802876 0.802906 Ni
0.908515 0.197190 0.197132 Ni
0.802778 0.802849 0.802869 Ni
0.197190 0.908541 0.197096 Ni
0.802735 0.802828 0.091641 Ni
