Ca8 Ni16
1.0
  7.103836  0.000000  0.000000
  0.000000  7.103836  0.000000
  0.000000  0.000000  7.321286
Ca Ni
8 16
direct
0.125000 0.125000 0.625000 Ca
0.375000 0.375000 0.375000 Ca
0.125000 0.625000 0.125000 Ca
0.375000 0.875000 0.875000 Ca
0.625000 0.125000 0.125000 Ca
0.875000 0.375000 0.875000 Ca
0.625000 0.625000 0.625000 Ca
0.875000 0.875000 0.375000 Ca
0.250000 0.750000 0.500000 Ni
0.500000 0.000000 0.500000 Ni
0.500000 0.750000 0.250000 Ni
0.250000 0.000000 0.250000 Ni
0.250000 0.250000 0.000000 Ni
0.500000 0.500000 0.000000 Ni
0.500000 0.250000 0.750000 Ni
0.250000 0.500000 0.750000 Ni
0.750000 0.750000 0.000000 Ni
0.000000 0.000000 0.000000 Ni
0.000000 0.750000 0.750000 Ni
0.750000 0.000000 0.750000 Ni
0.750000 0.250000 0.500000 Ni
0.000000 0.500000 0.500000 Ni
0.000000 0.250000 0.250000 Ni
0.750000 0.500000 0.250000 Ni
