Ga4 Fe8 Co4
1.0
  5.711924  0.000000  0.000000
  0.000000  5.711924  0.000000
  0.000000  0.000000  5.886767
Ga Fe Co
4 8 4
direct
0.500000 0.500000 0.500000 Ga
0.500000 0.000000 0.000000 Ga
0.000000 0.500000 0.000000 Ga
0.000000 0.000000 0.500000 Ga
0.750000 0.250000 0.250000 Fe
0.250000 0.750000 0.750000 Fe
0.750000 0.750000 0.750000 Fe
0.250000 0.250000 0.250000 Fe
0.250000 0.250000 0.750000 Fe
0.750000 0.750000 0.250000 Fe
0.250000 0.750000 0.250000 Fe
0.750000 0.250000 0.750000 Fe
0.000000 0.000000 0.000000 Co
0.000000 0.500000 0.500000 Co
0.500000 0.000000 0.500000 Co
0.500000 0.500000 0.000000 Co
