Ta8 Co16
1.0
  6.662109  0.000000  0.000000
  0.000000  6.662109  0.000000
  0.000000  0.000000  6.866037
Ta Co
8 16
direct
0.750000 0.250000 0.750000 Ta
0.000000 0.000000 0.000000 Ta
0.750000 0.750000 0.250000 Ta
0.000000 0.500000 0.500000 Ta
0.250000 0.250000 0.250000 Ta
0.500000 0.000000 0.500000 Ta
0.250000 0.750000 0.750000 Ta
0.500000 0.500000 0.000000 Ta
0.375000 0.875000 0.125000 Co
0.125000 0.875000 0.375000 Co
0.625000 0.125000 0.125000 Co
0.875000 0.125000 0.375000 Co
0.375000 0.375000 0.625000 Co
0.125000 0.375000 0.875000 Co
0.625000 0.625000 0.625000 Co
0.875000 0.625000 0.875000 Co
0.875000 0.875000 0.625000 Co
0.625000 0.875000 0.875000 Co
0.125000 0.125000 0.625000 Co
0.375000 0.125000 0.875000 Co
0.875000 0.375000 0.125000 Co
0.625000 0.375000 0.375000 Co
0.125000 0.625000 0.125000 Co
0.375000 0.625000 0.375000 Co
