Ti4 Fe4 Sn4
1.0
  6.162511  0.000000  0.000000
  0.000000  6.162511  0.000000
  0.000000  0.000000  6.351147
Ti Fe Sn
4 4 4
direct
0.750000 0.250000 0.250000 Ti
0.750000 0.750000 0.750000 Ti
0.250000 0.250000 0.750000 Ti
0.250000 0.750000 0.250000 Ti
0.000000 0.000000 0.000000 Fe
0.000000 0.500000 0.500000 Fe
0.500000 0.000000 0.500000 Fe
0.500000 0.500000 0.000000 Fe
0.000000 0.000000 0.500000 Sn
0.000000 0.500000 0.000000 Sn
0.500000 0.000000 0.000000 Sn
0.500000 0.500000 0.500000 Sn
