Mn3 Sn1 N1
1.0
  3.840152  0.000000  0.000000
  0.000000  3.840152  0.000000
  0.000000  0.000000  3.957699
Mn Sn N
3 1 1
direct
0.000000 0.500000 0.500000 Mn
0.500000 0.500000 0.000000 Mn
0.500000 0.000000 0.500000 Mn
0.000000 0.000000 0.000000 Sn
0.500000 0.500000 0.500000 N
