Mn1 Zn1
1.0
  2.969177  0.000000  0.000000
  0.000000  2.969177  0.000000
  0.000000  0.000000  3.060064
Mn Zn
1 1
direct
0.000000 0.000000 0.000000 Mn
0.500000 0.500000 0.500000 Zn
