Al4 V4 Fe8
1.0
  5.650587  0.000000  0.000000
  0.000000  5.650587  0.000000
  0.000000  0.000000  5.823553
Al V Fe
4 4 8
direct
0.000000 0.000000 0.000000 Al
0.000000 0.500000 0.500000 Al
0.500000 0.000000 0.500000 Al
0.500000 0.500000 0.000000 Al
0.000000 0.000000 0.500000 V
0.000000 0.500000 0.000000 V
0.500000 0.000000 0.000000 V
0.500000 0.500000 0.500000 V
0.250000 0.750000 0.250000 Fe
0.250000 0.750000 0.750000 Fe
0.250000 0.250000 0.750000 Fe
0.250000 0.250000 0.250000 Fe
0.750000 0.750000 0.750000 Fe
0.750000 0.750000 0.250000 Fe
0.750000 0.250000 0.250000 Fe
0.750000 0.250000 0.750000 Fe
