Cr4 C4
1.0
  4.067023  0.000000  0.000000
  0.000000  4.067023  0.000000
  0.000000  0.000000  4.191515
Cr C
4 4
direct
0.000000 0.000000 0.500000 Cr
0.000000 0.500000 0.000000 Cr
0.500000 0.000000 0.000000 Cr
0.500000 0.500000 0.500000 Cr
0.000000 0.000000 0.000000 C
0.000000 0.500000 0.500000 C
0.500000 0.000000 0.500000 C
0.500000 0.500000 0.000000 C
