Cr6 Ru2
1.0
  4.586306  0.000000  0.000000
  0.000000  4.586306  0.000000
  0.000000  0.000000  4.726693
Cr Ru
6 2
direct
0.250000 0.000000 0.500000 Cr
0.750000 0.000000 0.500000 Cr
0.000000 0.500000 0.250000 Cr
0.000000 0.500000 0.750000 Cr
0.500000 0.750000 0.000000 Cr
0.500000 0.250000 0.000000 Cr
0.000000 0.000000 0.000000 Ru
0.500000 0.500000 0.500000 Ru
