Ni3 Ge1
1.0
  3.543275  0.000000  0.000000
  0.000000  3.543275  0.000000
  0.000000  0.000000  3.651736
Ni Ge
3 1
direct
0.500000 0.000000 0.500000 Ni
0.000000 0.500000 0.500000 Ni
0.500000 0.500000 0.000000 Ni
0.000000 0.000000 0.000000 Ge
