Mn4 In4 Pd8
1.0
  6.361078  0.000000  0.000000
  0.000000  6.361078  0.000000
  0.000000  0.000000  6.555791
Mn In Pd
4 4 8
direct
0.000000 0.000000 0.500000 Mn
0.000000 0.500000 0.000000 Mn
0.500000 0.000000 0.000000 Mn
0.500000 0.500000 0.500000 Mn
0.000000 0.000000 0.000000 In
0.000000 0.500000 0.500000 In
0.500000 0.000000 0.500000 In
0.500000 0.500000 0.000000 In
0.750000 0.250000 0.250000 Pd
0.250000 0.750000 0.750000 Pd
0.750000 0.750000 0.750000 Pd
0.250000 0.250000 0.250000 Pd
0.250000 0.250000 0.750000 Pd
0.750000 0.750000 0.250000 Pd
0.250000 0.750000 0.250000 Pd
0.750000 0.250000 0.750000 Pd
