Mn3 Al1 C1
1.0
  3.768535  0.000000  0.000000
  0.000000  3.768535  0.000000
  0.000000  0.000000  3.883890
Mn Al C
3 1 1
direct
0.000000 0.500000 0.500000 Mn
0.500000 0.500000 0.000000 Mn
0.500000 0.000000 0.500000 Mn
0.000000 0.000000 0.000000 Al
0.500000 0.500000 0.500000 C
