Sc4 Al4 Ni8
1.0
  5.990649  0.000000  0.000000
  0.000000  5.990649  0.000000
  0.000000  0.000000  6.174024
Sc Al Ni
4 4 8
direct
0.000000 0.000000 0.500000 Sc
0.000000 0.500000 0.000000 Sc
0.500000 0.000000 0.000000 Sc
0.500000 0.500000 0.500000 Sc
0.000000 0.000000 0.000000 Al
0.000000 0.500000 0.500000 Al
0.500000 0.000000 0.500000 Al
0.500000 0.500000 0.000000 Al
0.750000 0.250000 0.750000 Ni
0.750000 0.250000 0.250000 Ni
0.750000 0.750000 0.250000 Ni
0.750000 0.750000 0.750000 Ni
0.250000 0.250000 0.250000 Ni
0.250000 0.250000 0.750000 Ni
0.250000 0.750000 0.750000 Ni
0.250000 0.750000 0.250000 Ni
