Nb4 Co4 Sb4
1.0
  5.925008  0.000000  0.000000
  0.000000  5.925008  0.000000
  0.000000  0.000000  6.106374
Nb Co Sb
4 4 4
direct
0.000000 0.000000 0.000000 Nb
0.000000 0.500000 0.500000 Nb
0.500000 0.000000 0.500000 Nb
0.500000 0.500000 0.000000 Nb
0.250000 0.750000 0.250000 Co
0.250000 0.250000 0.750000 Co
0.750000 0.750000 0.750000 Co
0.750000 0.250000 0.250000 Co
0.000000 0.000000 0.500000 Sb
0.000000 0.500000 0.000000 Sb
0.500000 0.000000 0.000000 Sb
0.500000 0.500000 0.500000 Sb
