Li4 Mn4 Pd8
1.0
  6.070506  0.000000  0.000000
  0.000000  6.070506  0.000000
  0.000000  0.000000  6.256325
Li Mn Pd
4 4 8
direct
0.000000 0.500000 0.500000 Li
0.000000 0.000000 0.000000 Li
0.500000 0.500000 0.000000 Li
0.500000 0.000000 0.500000 Li
0.000000 0.500000 0.000000 Mn
0.000000 0.000000 0.500000 Mn
0.500000 0.500000 0.500000 Mn
0.500000 0.000000 0.000000 Mn
0.250000 0.250000 0.250000 Pd
0.250000 0.250000 0.750000 Pd
0.250000 0.750000 0.750000 Pd
0.250000 0.750000 0.250000 Pd
0.750000 0.250000 0.750000 Pd
0.750000 0.250000 0.250000 Pd
0.750000 0.750000 0.250000 Pd
0.750000 0.750000 0.750000 Pd
