Mn4 Te4
1.0
  5.712263  0.000000  0.000000
  0.000000  5.712263  0.000000
  0.000000  0.000000  5.887117
Mn Te
4 4
direct
0.000000 0.000000 0.000000 Mn
0.000000 0.500000 0.500000 Mn
0.500000 0.000000 0.500000 Mn
0.500000 0.500000 0.000000 Mn
0.000000 0.000000 0.500000 Te
0.000000 0.500000 0.000000 Te
0.500000 0.000000 0.000000 Te
0.500000 0.500000 0.500000 Te
