Ni4 Sn4 Rh8
1.0
  6.141359  0.000000  0.000000
  0.000000  6.141359  0.000000
  0.000000  0.000000  6.329347
Ni Sn Rh
4 4 8
direct
0.000000 0.000000 0.000000 Ni
0.000000 0.500000 0.500000 Ni
0.500000 0.000000 0.500000 Ni
0.500000 0.500000 0.000000 Ni
0.000000 0.500000 0.000000 Sn
0.000000 0.000000 0.500000 Sn
0.500000 0.500000 0.500000 Sn
0.500000 0.000000 0.000000 Sn
0.750000 0.250000 0.250000 Rh
0.250000 0.750000 0.750000 Rh
0.750000 0.750000 0.750000 Rh
0.250000 0.250000 0.250000 Rh
0.250000 0.250000 0.750000 Rh
0.750000 0.750000 0.250000 Rh
0.250000 0.750000 0.250000 Rh
0.750000 0.250000 0.750000 Rh
