Mn4 Co8 Sb4
1.0
  5.962994  0.000000  0.000000
  0.000000  5.962994  0.000000
  0.000000  0.000000  6.145522
Mn Co Sb
4 8 4
direct
0.000000 0.000000 0.000000 Mn
0.000000 0.500000 0.500000 Mn
0.500000 0.000000 0.500000 Mn
0.500000 0.500000 0.000000 Mn
0.250000 0.250000 0.250000 Co
0.250000 0.250000 0.750000 Co
0.250000 0.750000 0.750000 Co
0.250000 0.750000 0.250000 Co
0.750000 0.250000 0.750000 Co
0.750000 0.250000 0.250000 Co
0.750000 0.750000 0.250000 Co
0.750000 0.750000 0.750000 Co
0.000000 0.000000 0.500000 Sb
0.000000 0.500000 0.000000 Sb
0.500000 0.000000 0.000000 Sb
0.500000 0.500000 0.500000 Sb
