Ti3 Fe6 Si3
1.0
  1.991498 -3.484218  0.000000
  2.011614  3.449376  0.000000
  0.000000  0.000000 10.067562
Ti Fe Si
3 6 3
direct
0.000000 0.000000 0.500000 Ti
0.666667 0.333333 0.833333 Ti
0.333333 0.666667 0.166667 Ti
0.000000 0.000000 0.249974 Fe
0.666667 0.333333 0.583307 Fe
0.333333 0.666667 0.916640 Fe
0.000000 0.000000 0.750026 Fe
0.666667 0.333333 0.083360 Fe
0.333333 0.666667 0.416693 Fe
0.000000 0.000000 0.000000 Si
0.666667 0.333333 0.333333 Si
0.333333 0.666667 0.666667 Si
