Mg1 Ni3 C1
1.0
  3.772107  0.000000  0.000000
  0.000000  3.772107  0.000000
  0.000000  0.000000  3.887572
Mg Ni C
1 3 1
direct
0.000000 0.000000 0.000000 Mg
0.000000 0.500000 0.500000 Ni
0.500000 0.000000 0.500000 Ni
0.500000 0.500000 0.000000 Ni
0.500000 0.500000 0.500000 C
