Mn8 Rh4 Pt4
1.0
  6.114043  0.000000  0.000000
  0.000000  6.114043  0.000000
  0.000000  0.000000  6.301195
Mn Pt Rh
8 4 4
direct
0.250000 0.250000 0.750000 Mn
0.750000 0.250000 0.750000 Mn
0.250000 0.750000 0.250000 Mn
0.750000 0.750000 0.250000 Mn
0.750000 0.250000 0.250000 Mn
0.250000 0.250000 0.250000 Mn
0.750000 0.750000 0.750000 Mn
0.250000 0.750000 0.750000 Mn
0.000000 0.000000 0.000000 Pt
0.000000 0.500000 0.500000 Pt
0.500000 0.000000 0.500000 Pt
0.500000 0.500000 0.000000 Pt
0.000000 0.000000 0.500000 Rh
0.000000 0.500000 0.000000 Rh
0.500000 0.000000 0.000000 Rh
0.500000 0.500000 0.500000 Rh
