Cr3 Ir1 N1
1.0
  3.778916  0.000000  0.000000
  0.000000  3.778916  0.000000
  0.000000  0.000000  3.894589
Cr Ir N
3 1 1
direct
0.000000 0.500000 0.500000 Cr
0.500000 0.000000 0.500000 Cr
0.500000 0.500000 0.000000 Cr
0.000000 0.000000 0.000000 Ir
0.500000 0.500000 0.500000 N
