Ti8 Co4 Ir4
1.0
  6.062980  0.000000  0.000000
  0.000000  6.062980  0.000000
  0.000000  0.000000  6.248569
Ti Co Ir
8 4 4
direct
0.250000 0.250000 0.250000 Ti
0.250000 0.250000 0.750000 Ti
0.250000 0.750000 0.750000 Ti
0.250000 0.750000 0.250000 Ti
0.750000 0.250000 0.750000 Ti
0.750000 0.250000 0.250000 Ti
0.750000 0.750000 0.250000 Ti
0.750000 0.750000 0.750000 Ti
0.000000 0.500000 0.500000 Co
0.000000 0.000000 0.000000 Co
0.500000 0.500000 0.000000 Co
0.500000 0.000000 0.500000 Co
0.000000 0.500000 0.000000 Ir
0.000000 0.000000 0.500000 Ir
0.500000 0.500000 0.500000 Ir
0.500000 0.000000 0.000000 Ir
