Cr6 Ge2
1.0
  4.542448  0.000000  0.000000
  0.000000  4.542448  0.000000
  0.000000  0.000000  4.681493
Cr Ge
6 2
direct
0.000000 0.500000 0.750000 Cr
0.500000 0.250000 0.000000 Cr
0.750000 0.000000 0.500000 Cr
0.000000 0.500000 0.250000 Cr
0.500000 0.750000 0.000000 Cr
0.250000 0.000000 0.500000 Cr
0.500000 0.500000 0.500000 Ge
0.000000 0.000000 0.000000 Ge
