Be8 Co4 Ir4
1.0
  5.375625  0.000000  0.000000
  0.000000  5.375625  0.000000
  0.000000  0.000000  5.540173
Be Co Ir
8 4 4
direct
0.750000 0.250000 0.250000 Be
0.750000 0.250000 0.750000 Be
0.750000 0.750000 0.750000 Be
0.750000 0.750000 0.250000 Be
0.250000 0.250000 0.750000 Be
0.250000 0.250000 0.250000 Be
0.250000 0.750000 0.250000 Be
0.250000 0.750000 0.750000 Be
0.000000 0.000000 0.500000 Co
0.000000 0.500000 0.000000 Co
0.500000 0.000000 0.000000 Co
0.500000 0.500000 0.500000 Co
0.500000 0.500000 0.000000 Ir
0.500000 0.000000 0.500000 Ir
0.000000 0.500000 0.500000 Ir
0.000000 0.000000 0.000000 Ir
