Mn4 Zn4 Rh8
1.0
  5.993928  0.000000  0.000000
  0.000000  5.993928  0.000000
  0.000000  0.000000  6.177403
Mn Zn Rh
4 4 8
direct
0.000000 0.000000 0.500000 Mn
0.000000 0.500000 0.000000 Mn
0.500000 0.000000 0.000000 Mn
0.500000 0.500000 0.500000 Mn
0.500000 0.500000 0.000000 Zn
0.500000 0.000000 0.500000 Zn
0.000000 0.500000 0.500000 Zn
0.000000 0.000000 0.000000 Zn
0.750000 0.250000 0.250000 Rh
0.750000 0.250000 0.750000 Rh
0.750000 0.750000 0.750000 Rh
0.750000 0.750000 0.250000 Rh
0.250000 0.250000 0.750000 Rh
0.250000 0.250000 0.250000 Rh
0.250000 0.750000 0.250000 Rh
0.250000 0.750000 0.750000 Rh
