Fe4 Cu8 S8
1.0
  7.567966  0.000000  0.000000
  3.821095 -6.556684  0.000000
  3.821191 -2.205827 -6.373098
Fe Cu S
4 8 8
direct
0.625225 0.124353 0.625176 Fe
0.625225 0.625206 0.625170 Fe
0.625226 0.625218 0.124307 Fe
0.124382 0.625206 0.625171 Fe
0.369646 0.369693 0.369711 Cu
0.369668 0.369718 0.890952 Cu
0.356433 0.881157 0.881179 Cu
0.890960 0.369696 0.369707 Cu
0.881244 0.881193 0.881213 Cu
0.881206 0.881154 0.356414 Cu
0.881187 0.356442 0.881159 Cu
0.369679 0.890897 0.369750 Cu
0.997325 0.997251 0.502713 S
0.997335 0.502709 0.997264 S
0.502730 0.997217 0.502707 S
0.502713 0.502705 0.997229 S
0.502665 0.997343 0.997350 S
0.499954 0.500049 0.500091 S
0.997208 0.502773 0.502758 S
0.999989 0.000021 0.999980 S
