Ni4 H4
1.0
  3.675092  0.000000  0.000000
  0.000000  3.675092  0.000000
  0.000000  0.000000  3.787587
Ni H
4 4
direct
0.000000 0.000000 0.000000 Ni
0.000000 0.500000 0.500000 Ni
0.500000 0.000000 0.500000 Ni
0.500000 0.500000 0.000000 Ni
0.000000 0.000000 0.500000 H
0.000000 0.500000 0.000000 H
0.500000 0.000000 0.000000 H
0.500000 0.500000 0.500000 H
