Fe1 Rh1
1.0
  2.988725  0.000000  0.000000
  0.000000  2.988725  0.000000
  0.000000  0.000000  3.080210
Fe Rh
1 1
direct
0.000000 0.000000 0.000000 Fe
0.500000 0.500000 0.500000 Rh
