Zn1 Co3 C1
1.0
  3.700560  0.000000  0.000000
  0.000000  3.700560  0.000000
  0.000000  0.000000  3.813834
Zn Co C
1 3 1
direct
0.000000 0.000000 0.000000 Zn
0.000000 0.500000 0.500000 Co
0.500000 0.500000 0.000000 Co
0.500000 0.000000 0.500000 Co
0.500000 0.500000 0.500000 C
