Mn6 Ga2 N2
1.0
  5.288825  0.000000  0.000000
  0.000000  5.295138  0.000000
  0.000000  0.000000  3.857743
Mn Ga N
6 2 2
direct
0.000000 0.499924 0.000000 Mn
0.750042 0.750016 0.500000 Mn
0.249958 0.750016 0.500000 Mn
0.500000 0.999924 0.000000 Mn
0.250042 0.250016 0.500000 Mn
0.749958 0.250016 0.500000 Mn
0.000000 0.999925 0.000000 Ga
0.500000 0.499925 0.000000 Ga
0.000000 0.499932 0.500000 N
0.500000 0.999932 0.500000 N
