Mn8 Co4 Si4
1.0
  5.570308  0.000000  0.000000
  0.000000  5.570308  0.000000
  0.000000  0.000000  5.740816
Mn Co Si
8 4 4
direct
0.250000 0.750000 0.250000 Mn
0.000000 0.000000 0.000000 Mn
0.250000 0.250000 0.750000 Mn
0.000000 0.500000 0.500000 Mn
0.750000 0.750000 0.750000 Mn
0.500000 0.000000 0.500000 Mn
0.750000 0.250000 0.250000 Mn
0.500000 0.500000 0.000000 Mn
0.000000 0.000000 0.500000 Co
0.000000 0.500000 0.000000 Co
0.500000 0.000000 0.000000 Co
0.500000 0.500000 0.500000 Co
0.250000 0.750000 0.750000 Si
0.250000 0.250000 0.250000 Si
0.750000 0.750000 0.250000 Si
0.750000 0.250000 0.750000 Si
