Sc8 Tc4 Ni4
1.0
  6.346946  0.000000  0.000000
  0.000000  6.346946  0.000000
  0.000000  0.000000  6.541227
Sc Tc Ni
8 4 4
direct
0.250000 0.250000 0.250000 Sc
0.250000 0.250000 0.750000 Sc
0.250000 0.750000 0.750000 Sc
0.250000 0.750000 0.250000 Sc
0.750000 0.250000 0.750000 Sc
0.750000 0.250000 0.250000 Sc
0.750000 0.750000 0.250000 Sc
0.750000 0.750000 0.750000 Sc
0.000000 0.500000 0.000000 Tc
0.000000 0.000000 0.500000 Tc
0.500000 0.500000 0.500000 Tc
0.500000 0.000000 0.000000 Tc
0.000000 0.500000 0.500000 Ni
0.000000 0.000000 0.000000 Ni
0.500000 0.500000 0.000000 Ni
0.500000 0.000000 0.500000 Ni
