Zn4 Ni4
1.0
  5.292669  0.000000  0.000000
  0.000000  5.292669  0.000000
  0.000000  0.000000  5.454678
Zn Ni
4 4
direct
0.750000 0.250000 0.250000 Zn
0.750000 0.750000 0.750000 Zn
0.250000 0.250000 0.750000 Zn
0.250000 0.750000 0.250000 Zn
0.000000 0.000000 0.000000 Ni
0.000000 0.500000 0.500000 Ni
0.500000 0.000000 0.500000 Ni
0.500000 0.500000 0.000000 Ni
