Cr4 Ga4 Te4
1.0
  6.649073  0.000000  0.000000
  0.000000  6.649073  0.000000
  0.000000  0.000000  6.852602
Cr Ga Te
4 4 4
direct
0.000000 0.000000 0.500000 Cr
0.000000 0.500000 0.000000 Cr
0.500000 0.000000 0.000000 Cr
0.500000 0.500000 0.500000 Cr
0.750000 0.250000 0.250000 Ga
0.750000 0.750000 0.750000 Ga
0.250000 0.250000 0.750000 Ga
0.250000 0.750000 0.250000 Ga
0.000000 0.000000 0.000000 Te
0.000000 0.500000 0.500000 Te
0.500000 0.000000 0.500000 Te
0.500000 0.500000 0.000000 Te
