Ta4 Ga4 Ni8
1.0
  5.919065  0.000000  0.000000
  0.000000  5.919065  0.000000
  0.000000  0.000000  6.100249
Ta Ga Ni
4 4 8
direct
0.500000 0.000000 0.000000 Ta
0.500000 0.500000 0.500000 Ta
0.000000 0.000000 0.500000 Ta
0.000000 0.500000 0.000000 Ta
0.000000 0.000000 0.000000 Ga
0.000000 0.500000 0.500000 Ga
0.500000 0.000000 0.500000 Ga
0.500000 0.500000 0.000000 Ga
0.750000 0.250000 0.750000 Ni
0.750000 0.250000 0.250000 Ni
0.750000 0.750000 0.250000 Ni
0.750000 0.750000 0.750000 Ni
0.250000 0.250000 0.250000 Ni
0.250000 0.250000 0.750000 Ni
0.250000 0.750000 0.750000 Ni
0.250000 0.750000 0.250000 Ni
