Ti16 Co8
1.0
  7.010741  0.000000  0.000000
  0.000000  7.010741  0.000000
  0.000000  0.000000  7.225341
Ti Co
16 8
direct
0.750000 0.000000 0.250000 Ti
0.500000 0.750000 0.750000 Ti
0.500000 0.000000 0.000000 Ti
0.750000 0.750000 0.500000 Ti
0.750000 0.500000 0.750000 Ti
0.500000 0.250000 0.250000 Ti
0.500000 0.500000 0.500000 Ti
0.750000 0.250000 0.000000 Ti
0.250000 0.000000 0.750000 Ti
0.000000 0.750000 0.250000 Ti
0.000000 0.000000 0.500000 Ti
0.250000 0.750000 0.000000 Ti
0.250000 0.500000 0.250000 Ti
0.000000 0.250000 0.750000 Ti
0.000000 0.500000 0.000000 Ti
0.250000 0.250000 0.500000 Ti
0.125000 0.125000 0.125000 Co
0.875000 0.875000 0.875000 Co
0.125000 0.625000 0.625000 Co
0.875000 0.375000 0.375000 Co
0.625000 0.125000 0.625000 Co
0.375000 0.875000 0.375000 Co
0.625000 0.625000 0.125000 Co
0.375000 0.375000 0.875000 Co
