Mn4 Sn4 Pt4
1.0
  6.159402  0.000000  0.000000
  0.000000  6.159402  0.000000
  0.000000  0.000000  6.347942
Mn Sn Pt
4 4 4
direct
0.000000 0.000000 0.000000 Mn
0.000000 0.500000 0.500000 Mn
0.500000 0.000000 0.500000 Mn
0.500000 0.500000 0.000000 Mn
0.000000 0.000000 0.500000 Sn
0.000000 0.500000 0.000000 Sn
0.500000 0.000000 0.000000 Sn
0.500000 0.500000 0.500000 Sn
0.250000 0.750000 0.250000 Pt
0.250000 0.250000 0.750000 Pt
0.750000 0.750000 0.750000 Pt
0.750000 0.250000 0.250000 Pt
