Mn4 S8
1.0
  5.467922  0.000000  0.000000
  0.000000  5.467922  0.000000
  0.000000  0.000000  5.635296
Mn S
4 8
direct
0.500000 0.500000 0.000000 Mn
0.500000 0.000000 0.500000 Mn
0.000000 0.500000 0.500000 Mn
0.000000 0.000000 0.000000 Mn
0.119213 0.880787 0.380787 S
0.880787 0.380787 0.119213 S
0.380787 0.119213 0.880787 S
0.619213 0.619213 0.619213 S
0.880787 0.119213 0.619213 S
0.119213 0.619213 0.880787 S
0.619213 0.880787 0.119213 S
0.380787 0.380787 0.380787 S
