Ni4 Sb4 Se4
1.0
  6.060318  0.000000  0.000000
  0.000000  6.060318  0.000000
  0.000000  0.000000  6.245825
Ni Sb Se
4 4 4
direct
0.990493 0.990493 0.990493 Ni
0.509507 0.009507 0.490493 Ni
0.490493 0.509507 0.009507 Ni
0.009507 0.490493 0.509507 Ni
0.368654 0.131346 0.868654 Sb
0.868654 0.368654 0.131346 Sb
0.631346 0.631346 0.631346 Sb
0.131346 0.868654 0.368654 Sb
0.875351 0.124649 0.624649 Se
0.124649 0.624649 0.875351 Se
0.624649 0.875351 0.124649 Se
0.375351 0.375351 0.375351 Se
