Hf4 In4 Co8
1.0
  6.151649  0.000000  0.000000
  0.000000  6.151649  0.000000
  0.000000  0.000000  6.339952
Hf In Co
4 4 8
direct
0.000000 0.000000 0.500000 Hf
0.000000 0.500000 0.000000 Hf
0.500000 0.000000 0.000000 Hf
0.500000 0.500000 0.500000 Hf
0.500000 0.500000 0.000000 In
0.500000 0.000000 0.500000 In
0.000000 0.500000 0.500000 In
0.000000 0.000000 0.000000 In
0.250000 0.750000 0.250000 Co
0.250000 0.750000 0.750000 Co
0.250000 0.250000 0.750000 Co
0.250000 0.250000 0.250000 Co
0.750000 0.750000 0.750000 Co
0.750000 0.750000 0.250000 Co
0.750000 0.250000 0.250000 Co
0.750000 0.250000 0.750000 Co
