Fe4 Tc8 Cl4
1.0
  5.937871  0.000000  0.000000
  0.000000  5.937871  0.000000
  0.000000  0.000000  6.119631
Fe Tc Cl
4 8 4
direct
0.000000 0.000000 0.500000 Fe
0.000000 0.500000 0.000000 Fe
0.500000 0.000000 0.000000 Fe
0.500000 0.500000 0.500000 Fe
0.750000 0.250000 0.750000 Tc
0.750000 0.250000 0.250000 Tc
0.750000 0.750000 0.250000 Tc
0.750000 0.750000 0.750000 Tc
0.250000 0.250000 0.250000 Tc
0.250000 0.250000 0.750000 Tc
0.250000 0.750000 0.750000 Tc
0.250000 0.750000 0.250000 Tc
0.000000 0.000000 0.000000 Cl
0.000000 0.500000 0.500000 Cl
0.500000 0.000000 0.500000 Cl
0.500000 0.500000 0.000000 Cl
