Ni4 As4 Se4
1.0
  5.811946  0.000000  0.000000
  0.000000  5.811946  0.000000
  0.000000  0.000000  5.989851
Ni As Se
4 4 4
direct
0.003287 0.003287 0.003287 Ni
0.496713 0.996713 0.503287 Ni
0.503287 0.496713 0.996713 Ni
0.996713 0.503287 0.496713 Ni
0.623501 0.623501 0.623501 As
0.876499 0.376499 0.123501 As
0.123501 0.876499 0.376499 As
0.376499 0.123501 0.876499 As
0.378225 0.378225 0.378225 Se
0.121775 0.621775 0.878225 Se
0.878225 0.121775 0.621775 Se
0.621775 0.878225 0.121775 Se
