Sc4 Ni8 Sn4
1.0
  6.195212  0.000000  0.000000
  0.000000  6.195212  0.000000
  0.000000  0.000000  6.384848
Sc Ni Sn
4 8 4
direct
0.000000 0.000000 0.000000 Sc
0.000000 0.500000 0.500000 Sc
0.500000 0.000000 0.500000 Sc
0.500000 0.500000 0.000000 Sc
0.750000 0.250000 0.250000 Ni
0.250000 0.750000 0.750000 Ni
0.750000 0.750000 0.750000 Ni
0.250000 0.250000 0.250000 Ni
0.250000 0.250000 0.750000 Ni
0.750000 0.750000 0.250000 Ni
0.250000 0.750000 0.250000 Ni
0.750000 0.250000 0.750000 Ni
0.500000 0.500000 0.500000 Sn
0.500000 0.000000 0.000000 Sn
0.000000 0.500000 0.000000 Sn
0.000000 0.000000 0.500000 Sn
