Fe4 P1
1.0
  4.093542  0.000000  0.000000
  0.000000  4.094585  0.000000
  0.000000  0.000000  4.222184
Fe P
4 1
direct
0.000000 0.000000 0.000000 Fe
0.500000 0.500000 0.000000 Fe
0.500000 0.000000 0.500000 Fe
0.000000 0.500000 0.500000 Fe
0.500000 0.500000 0.500000 P
