Hf4 Ni4 Sn4
1.0
  6.053386  0.000000  0.000000
  0.000000  6.053386  0.000000
  0.000000  0.000000  6.238681
Hf Ni Sn
4 4 4
direct
0.000000 0.000000 0.000000 Hf
0.000000 0.500000 0.500000 Hf
0.500000 0.000000 0.500000 Hf
0.500000 0.500000 0.000000 Hf
0.250000 0.750000 0.750000 Ni
0.250000 0.250000 0.250000 Ni
0.750000 0.750000 0.250000 Ni
0.750000 0.250000 0.750000 Ni
0.000000 0.500000 0.000000 Sn
0.000000 0.000000 0.500000 Sn
0.500000 0.500000 0.500000 Sn
0.500000 0.000000 0.000000 Sn
