Mn3 In1 C1
1.0
  5.018799  0.000000  0.000000
  0.000000  5.018799  0.000000
  0.000000  0.000000  5.172425
Mn In C
3 1 1
direct
0.000000 0.500000 0.500000 Mn
0.500000 0.500000 0.000000 Mn
0.500000 0.000000 0.500000 Mn
0.500000 0.500000 0.500000 In
0.000000 0.000000 0.000000 C
