Mn1 Ni1
1.0
  2.887043  0.000000  0.000000
  0.000000  2.887043  0.000000
  0.000000  0.000000  2.975416
Mn Ni
1 1
direct
0.000000 0.000000 0.000000 Mn
0.500000 0.500000 0.500000 Ni
