Mn3 Pt1
1.0
  3.850329  0.000000  0.000000
  0.000000  3.850329  0.000000
  0.000000  0.000000  3.968188
Mn Pt
3 1
direct
0.000000 0.500000 0.500000 Mn
0.500000 0.500000 0.000000 Mn
0.500000 0.000000 0.500000 Mn
0.000000 0.000000 0.000000 Pt
