Mn1 S1
1.0
  3.068050  0.000000  0.000000
  0.000000  3.068050  0.000000
  0.000000  0.000000  3.161963
Mn S
1 1
direct
0.000000 0.000000 0.000000 Mn
0.500000 0.500000 0.500000 S
