Mn4 Sn4 Ir4
1.0
  6.077700  0.000000  0.000000
  0.000000  6.077700  0.000000
  0.000000  0.000000  6.263739
Mn Sn Ir
4 4 4
direct
0.000000 0.000000 0.000000 Mn
0.000000 0.500000 0.500000 Mn
0.500000 0.000000 0.500000 Mn
0.500000 0.500000 0.000000 Mn
0.250000 0.750000 0.750000 Sn
0.250000 0.250000 0.250000 Sn
0.750000 0.750000 0.250000 Sn
0.750000 0.250000 0.750000 Sn
0.000000 0.500000 0.000000 Ir
0.000000 0.000000 0.500000 Ir
0.500000 0.500000 0.500000 Ir
0.500000 0.000000 0.000000 Ir
