Zr4 In4 Ni16
1.0
  6.800798  0.000000  0.000000
  0.000000  6.800798  0.000000
  0.000000  0.000000  7.008972
Zr In Ni
4 4 16
direct
0.000000 0.000000 0.000000 Zr
0.000000 0.500000 0.500000 Zr
0.500000 0.000000 0.500000 Zr
0.500000 0.500000 0.000000 Zr
0.250000 0.750000 0.750000 In
0.250000 0.250000 0.250000 In
0.750000 0.750000 0.250000 In
0.750000 0.250000 0.750000 In
0.624963 0.124963 0.124963 Ni
0.875037 0.124963 0.375037 Ni
0.624963 0.375037 0.375037 Ni
0.875037 0.375037 0.124963 Ni
0.624963 0.624963 0.624963 Ni
0.875037 0.624963 0.875037 Ni
0.624963 0.875037 0.875037 Ni
0.875037 0.875037 0.624963 Ni
0.124963 0.124963 0.624963 Ni
0.375037 0.124963 0.875037 Ni
0.124963 0.375037 0.875037 Ni
0.375037 0.375037 0.624963 Ni
0.124963 0.624963 0.124963 Ni
0.375037 0.624963 0.375037 Ni
0.124963 0.875037 0.375037 Ni
0.375037 0.875037 0.124963 Ni
