Ti4 Zn4 Ni8
1.0
  5.808111  0.000000  0.000000
  0.000000  5.808111  0.000000
  0.000000  0.000000  5.985898
Ti Zn Ni
4 4 8
direct
0.000000 0.500000 0.500000 Ti
0.000000 0.000000 0.000000 Ti
0.500000 0.500000 0.000000 Ti
0.500000 0.000000 0.500000 Ti
0.000000 0.500000 0.000000 Zn
0.000000 0.000000 0.500000 Zn
0.500000 0.500000 0.500000 Zn
0.500000 0.000000 0.000000 Zn
0.250000 0.250000 0.250000 Ni
0.250000 0.250000 0.750000 Ni
0.250000 0.750000 0.750000 Ni
0.250000 0.750000 0.250000 Ni
0.750000 0.250000 0.750000 Ni
0.750000 0.250000 0.250000 Ni
0.750000 0.750000 0.250000 Ni
0.750000 0.750000 0.750000 Ni
