Ni4 Sb4 S4
1.0
  5.874650  0.000000  0.000000
  0.000000  5.874650  0.000000
  0.000000  0.000000  6.054474
Ni Sb S
4 4 4
direct
0.479634 0.979634 0.520366 Ni
0.979634 0.520366 0.479634 Ni
0.520366 0.479634 0.979634 Ni
0.020366 0.020366 0.020366 Ni
0.131582 0.631582 0.868418 Sb
0.631582 0.868418 0.131582 Sb
0.868418 0.131582 0.631582 Sb
0.368418 0.368418 0.368418 Sb
0.881326 0.381326 0.118674 S
0.381326 0.118674 0.881326 S
0.118674 0.881326 0.381326 S
0.618674 0.618674 0.618674 S
