Ti1 Mn2 Ge1
1.0
  4.109077  0.000000  0.000000
 -2.075190  3.560111  0.000000
 -2.073678 -1.199497  3.460081
Ti Mn Ge
1 2 1
direct
0.500000 0.000000 0.500000 Ti
0.999899 0.749850 0.749892 Mn
0.000101 0.250150 0.250108 Mn
0.500000 0.500000 0.000000 Ge
