Fe1 Pd3
1.0
  3.856137  0.000000  0.000000
  0.000000  3.856137  0.000000
  0.000000  0.000000  3.974174
Fe Pd
1 3
direct
0.000000 0.000000 0.000000 Fe
0.000000 0.500000 0.500000 Pd
0.500000 0.500000 0.000000 Pd
0.500000 0.000000 0.500000 Pd
