Sc8 Co4 Ru4
1.0
  6.283675  0.000000  0.000000
  0.000000  6.283675  0.000000
  0.000000  0.000000  6.476019
Sc Co Ru
8 4 4
direct
0.250000 0.250000 0.250000 Sc
0.250000 0.250000 0.750000 Sc
0.250000 0.750000 0.750000 Sc
0.250000 0.750000 0.250000 Sc
0.750000 0.250000 0.750000 Sc
0.750000 0.250000 0.250000 Sc
0.750000 0.750000 0.250000 Sc
0.750000 0.750000 0.750000 Sc
0.000000 0.500000 0.500000 Co
0.000000 0.000000 0.000000 Co
0.500000 0.500000 0.000000 Co
0.500000 0.000000 0.500000 Co
0.000000 0.500000 0.000000 Ru
0.000000 0.000000 0.500000 Ru
0.500000 0.500000 0.500000 Ru
0.500000 0.000000 0.000000 Ru
