Be8 Co4 Pt4
1.0
  5.398223  0.000000  0.000000
  0.000000  5.398223  0.000000
  0.000000  0.000000  5.563463
Be Co Pt
8 4 4
direct
0.250000 0.750000 0.750000 Be
0.250000 0.750000 0.250000 Be
0.250000 0.250000 0.250000 Be
0.250000 0.250000 0.750000 Be
0.750000 0.750000 0.250000 Be
0.750000 0.750000 0.750000 Be
0.750000 0.250000 0.750000 Be
0.750000 0.250000 0.250000 Be
0.000000 0.000000 0.000000 Co
0.000000 0.500000 0.500000 Co
0.500000 0.000000 0.500000 Co
0.500000 0.500000 0.000000 Co
0.000000 0.000000 0.500000 Pt
0.000000 0.500000 0.000000 Pt
0.500000 0.000000 0.000000 Pt
0.500000 0.500000 0.500000 Pt
