Mn4 Be8 Pt4
1.0
  5.530089  0.000000  0.000000
  0.000000  5.530089  0.000000
  0.000000  0.000000  5.699365
Mn Be Pt
4 8 4
direct
0.000000 0.500000 0.500000 Mn
0.000000 0.000000 0.000000 Mn
0.500000 0.500000 0.000000 Mn
0.500000 0.000000 0.500000 Mn
0.250000 0.250000 0.750000 Be
0.250000 0.250000 0.250000 Be
0.250000 0.750000 0.250000 Be
0.250000 0.750000 0.750000 Be
0.750000 0.250000 0.250000 Be
0.750000 0.250000 0.750000 Be
0.750000 0.750000 0.750000 Be
0.750000 0.750000 0.250000 Be
0.000000 0.500000 0.000000 Pt
0.000000 0.000000 0.500000 Pt
0.500000 0.500000 0.500000 Pt
0.500000 0.000000 0.000000 Pt
