Sc4 Co4 Te4
1.0
  6.018032  0.000000  0.000000
  0.000000  6.018032  0.000000
  0.000000  0.000000  6.202245
Sc Co Te
4 4 4
direct
0.000000 0.000000 0.000000 Sc
0.000000 0.500000 0.500000 Sc
0.500000 0.000000 0.500000 Sc
0.500000 0.500000 0.000000 Sc
0.250000 0.750000 0.250000 Co
0.250000 0.250000 0.750000 Co
0.750000 0.750000 0.750000 Co
0.750000 0.250000 0.250000 Co
0.500000 0.000000 0.000000 Te
0.500000 0.500000 0.500000 Te
0.000000 0.000000 0.500000 Te
0.000000 0.500000 0.000000 Te
