Mn3 Ga1 C1
1.0
  3.776576  0.000000  0.000000
  0.000000  3.776576  0.000000
  0.000000  0.000000  3.892177
Mn Ga C
3 1 1
direct
0.000000 0.500000 0.500000 Mn
0.500000 0.500000 0.000000 Mn
0.500000 0.000000 0.500000 Mn
0.000000 0.000000 0.000000 Ga
0.500000 0.500000 0.500000 C
