Sc8 Co4 Ir4
1.0
  6.304837  0.000000  0.000000
  0.000000  6.304837  0.000000
  0.000000  0.000000  6.497829
Sc Co Ir
8 4 4
direct
0.750000 0.750000 0.250000 Sc
0.750000 0.750000 0.750000 Sc
0.750000 0.250000 0.750000 Sc
0.750000 0.250000 0.250000 Sc
0.250000 0.750000 0.750000 Sc
0.250000 0.750000 0.250000 Sc
0.250000 0.250000 0.250000 Sc
0.250000 0.250000 0.750000 Sc
0.500000 0.000000 0.500000 Co
0.500000 0.500000 0.000000 Co
0.000000 0.000000 0.000000 Co
0.000000 0.500000 0.500000 Co
0.000000 0.500000 0.000000 Ir
0.000000 0.000000 0.500000 Ir
0.500000 0.500000 0.500000 Ir
0.500000 0.000000 0.000000 Ir
