Al4 V4 Co8
1.0
  5.698633  0.000000  0.000000
  0.000000  5.698633  0.000000
  0.000000  0.000000  5.873069
Al V Co
4 4 8
direct
0.000000 0.000000 0.000000 Al
0.000000 0.500000 0.500000 Al
0.500000 0.000000 0.500000 Al
0.500000 0.500000 0.000000 Al
0.500000 0.000000 0.000000 V
0.500000 0.500000 0.500000 V
0.000000 0.000000 0.500000 V
0.000000 0.500000 0.000000 V
0.750000 0.750000 0.750000 Co
0.250000 0.750000 0.750000 Co
0.750000 0.250000 0.250000 Co
0.250000 0.250000 0.250000 Co
0.250000 0.750000 0.250000 Co
0.750000 0.750000 0.250000 Co
0.250000 0.250000 0.750000 Co
0.750000 0.250000 0.750000 Co
