Mn4 Cu4 Pd8
1.0
  6.063626  0.000000  0.000000
  0.000000  6.063626  0.000000
  0.000000  0.000000  6.249235
Mn Cu Pd
4 4 8
direct
0.000000 0.500000 0.000000 Mn
0.000000 0.000000 0.500000 Mn
0.500000 0.500000 0.500000 Mn
0.500000 0.000000 0.000000 Mn
0.000000 0.500000 0.500000 Cu
0.000000 0.000000 0.000000 Cu
0.500000 0.500000 0.000000 Cu
0.500000 0.000000 0.500000 Cu
0.250000 0.250000 0.250000 Pd
0.250000 0.250000 0.750000 Pd
0.250000 0.750000 0.750000 Pd
0.250000 0.750000 0.250000 Pd
0.750000 0.250000 0.750000 Pd
0.750000 0.250000 0.250000 Pd
0.750000 0.750000 0.250000 Pd
0.750000 0.750000 0.750000 Pd
