Mn3 Zn1 C1
1.0
  3.836782  0.000000  0.000000
  0.000000  3.836782  0.000000
  0.000000  0.000000  3.954226
Mn Zn C
3 1 1
direct
0.000000 0.500000 0.500000 Mn
0.500000 0.500000 0.000000 Mn
0.500000 0.000000 0.500000 Mn
0.000000 0.000000 0.000000 Zn
0.500000 0.500000 0.500000 C
