Mn4 Se4
1.0
  5.887340  0.000000  0.000000
  0.000000  5.887340  0.000000
  0.000000  0.000000  6.067552
Mn Se
4 4
direct
0.000000 0.000000 0.000000 Mn
0.000000 0.500000 0.500000 Mn
0.500000 0.000000 0.500000 Mn
0.500000 0.500000 0.000000 Mn
0.750000 0.250000 0.250000 Se
0.750000 0.750000 0.750000 Se
0.250000 0.250000 0.750000 Se
0.250000 0.750000 0.250000 Se
