Al3 Fe6 W3
1.0
  2.054025 -3.593611  0.000000
  2.074773  3.557675  0.000000
  0.000000  0.000000 10.375054
Al Fe W
3 6 3
direct
0.000000 0.000000 0.000000 Al
0.666667 0.333333 0.333333 Al
0.333333 0.666667 0.666667 Al
0.000000 0.000000 0.249986 Fe
0.666667 0.333333 0.583319 Fe
0.333333 0.666667 0.916652 Fe
0.000000 0.000000 0.750014 Fe
0.666667 0.333333 0.083348 Fe
0.333333 0.666667 0.416681 Fe
0.000000 0.000000 0.500000 W
0.666667 0.333333 0.833333 W
0.333333 0.666667 0.166667 W
