Mn4 Sb4 Pt4
1.0
  6.196977  0.000000  0.000000
  0.000000  6.196977  0.000000
  0.000000  0.000000  6.386668
Mn Sb Pt
4 4 4
direct
0.000000 0.000000 0.000000 Mn
0.000000 0.500000 0.500000 Mn
0.500000 0.000000 0.500000 Mn
0.500000 0.500000 0.000000 Mn
0.250000 0.750000 0.750000 Sb
0.250000 0.250000 0.250000 Sb
0.750000 0.750000 0.250000 Sb
0.750000 0.250000 0.750000 Sb
0.000000 0.000000 0.500000 Pt
0.000000 0.500000 0.000000 Pt
0.500000 0.000000 0.000000 Pt
0.500000 0.500000 0.500000 Pt
