Fe2 Se2
1.0
  4.276017  0.000000  0.000000
  0.000000  4.276017  0.000000
  0.000000  0.000000  3.124387
Fe Se
2 2
direct
0.500000 0.000000 0.505717 Fe
0.000000 0.500000 0.494283 Fe
0.000000 0.000000 0.000000 Se
0.500000 0.500000 0.000000 Se
