Li4 Co8 Ge4
1.0
  5.554563  0.000000  0.000000
  0.000000  5.554563  0.000000
  0.000000  0.000000  5.724589
Li Co Ge
4 8 4
direct
0.000000 0.000000 0.500000 Li
0.000000 0.500000 0.000000 Li
0.500000 0.000000 0.000000 Li
0.500000 0.500000 0.500000 Li
0.750000 0.250000 0.250000 Co
0.250000 0.750000 0.750000 Co
0.750000 0.750000 0.750000 Co
0.250000 0.250000 0.250000 Co
0.250000 0.250000 0.750000 Co
0.750000 0.750000 0.250000 Co
0.250000 0.750000 0.250000 Co
0.750000 0.250000 0.750000 Co
0.000000 0.000000 0.000000 Ge
0.000000 0.500000 0.500000 Ge
0.500000 0.000000 0.500000 Ge
0.500000 0.500000 0.000000 Ge
