Cr4 Si4 Ru8
1.0
  5.872572  0.000000  0.000000
  0.000000  5.872572  0.000000
  0.000000  0.000000  6.052332
Cr Si Ru
4 4 8
direct
0.000000 0.000000 0.500000 Cr
0.000000 0.500000 0.000000 Cr
0.500000 0.000000 0.000000 Cr
0.500000 0.500000 0.500000 Cr
0.000000 0.000000 0.000000 Si
0.000000 0.500000 0.500000 Si
0.500000 0.000000 0.500000 Si
0.500000 0.500000 0.000000 Si
0.750000 0.250000 0.250000 Ru
0.750000 0.250000 0.750000 Ru
0.750000 0.750000 0.750000 Ru
0.750000 0.750000 0.250000 Ru
0.250000 0.250000 0.750000 Ru
0.250000 0.250000 0.250000 Ru
0.250000 0.750000 0.250000 Ru
0.250000 0.750000 0.750000 Ru
