Mn3 Rh1
1.0
  3.569537  0.000000  0.000000
  0.000000  3.569537  0.000000
  0.000000  0.000000  3.678801
Mn Rh
3 1
direct
0.000000 0.500000 0.500000 Mn
0.500000 0.500000 0.000000 Mn
0.500000 0.000000 0.500000 Mn
0.000000 0.000000 0.000000 Rh
