Co4 As4 S4
1.0
  5.528211  0.000000  0.000000
  0.000000  5.528211  0.000000
  0.000000  0.000000  5.697431
Co As S
4 4 4
direct
0.507983 0.492017 0.992017 Co
0.492017 0.992017 0.507983 Co
0.007983 0.007983 0.007983 Co
0.992017 0.507983 0.492017 Co
0.621411 0.878589 0.121411 As
0.121411 0.621411 0.878589 As
0.378589 0.378589 0.378589 As
0.878589 0.121411 0.621411 As
0.380943 0.119057 0.880943 S
0.880943 0.380943 0.119057 S
0.119057 0.880943 0.380943 S
0.619057 0.619057 0.619057 S
