Ni3 Ge1 C1
1.0
  3.770622  0.000000  0.000000
  0.000000  3.770622  0.000000
  0.000000  0.000000  3.886041
Ni Ge C
3 1 1
direct
0.000000 0.500000 0.500000 Ni
0.500000 0.500000 0.000000 Ni
0.500000 0.000000 0.500000 Ni
0.000000 0.000000 0.000000 Ge
0.500000 0.500000 0.500000 C
