Al4 Fe12
1.0
  5.687795  0.000000  0.000000
  0.000000  5.687795  0.000000
  0.000000  0.000000  5.861899
Al Fe
4 12
direct
0.000000 0.000000 0.000000 Al
0.000000 0.500000 0.500000 Al
0.500000 0.000000 0.500000 Al
0.500000 0.500000 0.000000 Al
0.000000 0.500000 0.000000 Fe
0.250000 0.750000 0.750000 Fe
0.750000 0.250000 0.250000 Fe
0.000000 0.000000 0.500000 Fe
0.250000 0.250000 0.250000 Fe
0.750000 0.750000 0.750000 Fe
0.500000 0.500000 0.500000 Fe
0.750000 0.750000 0.250000 Fe
0.250000 0.250000 0.750000 Fe
0.500000 0.000000 0.000000 Fe
0.750000 0.250000 0.750000 Fe
0.250000 0.750000 0.250000 Fe
