Mn4 Tc4 Pd4
1.0
  5.729038  0.000000  0.000000
  0.000000  5.729038  0.000000
  0.000000  0.000000  5.904405
Mn Tc Pd
4 4 4
direct
0.750000 0.250000 0.250000 Mn
0.750000 0.750000 0.750000 Mn
0.250000 0.250000 0.750000 Mn
0.250000 0.750000 0.250000 Mn
0.000000 0.000000 0.500000 Tc
0.000000 0.500000 0.000000 Tc
0.500000 0.000000 0.000000 Tc
0.500000 0.500000 0.500000 Tc
0.000000 0.000000 0.000000 Pd
0.000000 0.500000 0.500000 Pd
0.500000 0.000000 0.500000 Pd
0.500000 0.500000 0.000000 Pd
