Mn1 Zn3
1.0
  3.787043  0.000000  0.000000
  0.000000  3.787043  0.000000
  0.000000  0.000000  3.902965
Mn Zn
1 3
direct
0.000000 0.000000 0.000000 Mn
0.000000 0.500000 0.500000 Zn
0.500000 0.500000 0.000000 Zn
0.500000 0.000000 0.500000 Zn
