Cr1 Pt3
1.0
  3.882493  0.000000  0.000000
  0.000000  3.882493  0.000000
  0.000000  0.000000  4.001337
Cr Pt
1 3
direct
0.000000 0.000000 0.000000 Cr
0.000000 0.500000 0.500000 Pt
0.500000 0.500000 0.000000 Pt
0.500000 0.000000 0.500000 Pt
