Hf4 Mn4 Tl4
1.0
  6.401277  0.000000  0.000000
  0.000000  6.401277  0.000000
  0.000000  0.000000  6.597221
Hf Mn Tl
4 4 4
direct
0.750000 0.250000 0.250000 Hf
0.750000 0.750000 0.750000 Hf
0.250000 0.250000 0.750000 Hf
0.250000 0.750000 0.250000 Hf
0.000000 0.000000 0.000000 Mn
0.000000 0.500000 0.500000 Mn
0.500000 0.000000 0.500000 Mn
0.500000 0.500000 0.000000 Mn
0.000000 0.500000 0.000000 Tl
0.000000 0.000000 0.500000 Tl
0.500000 0.500000 0.500000 Tl
0.500000 0.000000 0.000000 Tl
