Hf8 Co4 Ir4
1.0
  6.364854  0.000000  0.000000
  0.000000  6.364854  0.000000
  0.000000  0.000000  6.559683
Hf Co Ir
8 4 4
direct
0.250000 0.250000 0.250000 Hf
0.750000 0.250000 0.250000 Hf
0.250000 0.750000 0.750000 Hf
0.750000 0.750000 0.750000 Hf
0.750000 0.250000 0.750000 Hf
0.250000 0.250000 0.750000 Hf
0.750000 0.750000 0.250000 Hf
0.250000 0.750000 0.250000 Hf
0.500000 0.500000 0.000000 Co
0.500000 0.000000 0.500000 Co
0.000000 0.500000 0.500000 Co
0.000000 0.000000 0.000000 Co
0.000000 0.000000 0.500000 Ir
0.000000 0.500000 0.000000 Ir
0.500000 0.000000 0.000000 Ir
0.500000 0.500000 0.500000 Ir
