Cr6 Os2
1.0
  4.601748  0.000000  0.000000
  0.000000  4.601748  0.000000
  0.000000  0.000000  4.742608
Cr Os
6 2
direct
0.250000 0.000000 0.500000 Cr
0.750000 0.000000 0.500000 Cr
0.000000 0.500000 0.250000 Cr
0.000000 0.500000 0.750000 Cr
0.500000 0.750000 0.000000 Cr
0.500000 0.250000 0.000000 Cr
0.000000 0.000000 0.000000 Os
0.500000 0.500000 0.500000 Os
