Sc4 Ni4 Sb4
1.0
  6.049638  0.000000  0.000000
  0.000000  6.049638  0.000000
  0.000000  0.000000  6.234818
Sc Ni Sb
4 4 4
direct
0.000000 0.500000 0.000000 Sc
0.000000 0.000000 0.500000 Sc
0.500000 0.500000 0.500000 Sc
0.500000 0.000000 0.000000 Sc
0.250000 0.750000 0.750000 Ni
0.250000 0.250000 0.250000 Ni
0.750000 0.750000 0.250000 Ni
0.750000 0.250000 0.750000 Ni
0.000000 0.000000 0.000000 Sb
0.000000 0.500000 0.500000 Sb
0.500000 0.000000 0.500000 Sb
0.500000 0.500000 0.000000 Sb
