Sc4 Ni16 Sn4
1.0
  6.830352  0.000000  0.000000
  0.000000  6.830352  0.000000
  0.000000  0.000000  7.039430
Sc Ni Sn
4 16 4
direct
0.000000 0.000000 0.000000 Sc
0.000000 0.500000 0.500000 Sc
0.500000 0.000000 0.500000 Sc
0.500000 0.500000 0.000000 Sc
0.874944 0.125056 0.374944 Ni
0.625056 0.125056 0.125056 Ni
0.625056 0.374944 0.374944 Ni
0.874944 0.374944 0.125056 Ni
0.874944 0.625056 0.874944 Ni
0.625056 0.625056 0.625056 Ni
0.625056 0.874944 0.874944 Ni
0.874944 0.874944 0.625056 Ni
0.374944 0.125056 0.874944 Ni
0.125056 0.125056 0.625056 Ni
0.125056 0.374944 0.874944 Ni
0.374944 0.374944 0.625056 Ni
0.374944 0.625056 0.374944 Ni
0.125056 0.625056 0.125056 Ni
0.125056 0.874944 0.374944 Ni
0.374944 0.874944 0.125056 Ni
0.250000 0.750000 0.750000 Sn
0.250000 0.250000 0.250000 Sn
0.750000 0.750000 0.250000 Sn
0.750000 0.250000 0.750000 Sn
