Al4 Ni12
1.0
  5.600992  0.000000  0.000000
  0.000000  5.600992  0.000000
  0.000000  0.000000  5.772440
Al Ni
4 12
direct
0.000000 0.000000 0.000000 Al
0.000000 0.500000 0.500000 Al
0.500000 0.000000 0.500000 Al
0.500000 0.500000 0.000000 Al
0.750000 0.750000 0.750000 Ni
0.000000 0.000000 0.500000 Ni
0.250000 0.250000 0.250000 Ni
0.750000 0.250000 0.250000 Ni
0.000000 0.500000 0.000000 Ni
0.250000 0.750000 0.750000 Ni
0.250000 0.750000 0.250000 Ni
0.500000 0.000000 0.000000 Ni
0.750000 0.250000 0.750000 Ni
0.250000 0.250000 0.750000 Ni
0.500000 0.500000 0.500000 Ni
0.750000 0.750000 0.250000 Ni
