#65-C2/m2/m2/m                          
  0.999999999954377     
    12.1991520920984069    0.0000000000000000    0.0000000000000000
     0.0000000000000000    3.0116164566071619    0.0000000000000000
     0.0000000000000000    0.0000000000000000    4.0476077605092362
   Fe   Nb
    10     2
Direct
  0.6715544496095234  0.0000000000000000  0.0000000000000000
  0.3284455503904766  0.0000000000000000  0.0000000000000000
  0.1715544496095234  0.5000000000000000  0.0000000000000000
  0.8284455503904766  0.5000000000000000  0.0000000000000000
  0.1694391807212412  0.0000000000000000  0.5000000000000000
  0.8305608192787588  0.0000000000000000  0.5000000000000000
  0.6694391807212412  0.5000000000000000  0.5000000000000000
  0.3305608192787588  0.5000000000000000  0.5000000000000000
  0.5000000000000000  0.0000000000000000  0.5000000000000000
  0.0000000000000000  0.5000000000000000  0.5000000000000000
  0.0000000000000000  0.0000000000000000  0.0000000000000000
  0.5000000000000000  0.5000000000000000  0.0000000000000000
 
  0.00000000E+00  0.00000000E+00  0.00000000E+00
  0.00000000E+00  0.00000000E+00  0.00000000E+00
  0.00000000E+00  0.00000000E+00  0.00000000E+00
  0.00000000E+00  0.00000000E+00  0.00000000E+00
  0.00000000E+00  0.00000000E+00  0.00000000E+00
  0.00000000E+00  0.00000000E+00  0.00000000E+00
  0.00000000E+00  0.00000000E+00  0.00000000E+00
  0.00000000E+00  0.00000000E+00  0.00000000E+00
  0.00000000E+00  0.00000000E+00  0.00000000E+00
  0.00000000E+00  0.00000000E+00  0.00000000E+00
  0.00000000E+00  0.00000000E+00  0.00000000E+00
  0.00000000E+00  0.00000000E+00  0.00000000E+00
