#12-C12/m1                              
  0.999999999602509     
     8.7313626354505054    0.0000000000000000   -0.0003681882333790
     0.0000000000000000    4.0932166076144778    0.0000000000000000
    -2.8372353486559212    0.0000000000000000    4.1603052704422367
   Fe   Nb
    10     2
Direct
  0.8277837983352399  0.0000000000000000  0.1573242023865475
  0.1722162016647601  0.0000000000000000  0.8426757976134525
  0.3277837983352399  0.5000000000000000  0.1573242023865475
  0.6722162016647601  0.5000000000000000  0.8426757976134525
  0.1618105352176897  0.0000000000000000  0.3274731286066270
  0.8381894647823103  0.0000000000000000  0.6725268713933730
  0.6618105352176897  0.5000000000000000  0.3274731286066270
  0.3381894647823103  0.5000000000000000  0.6725268713933730
  0.0000000000000000  0.5000000000000000  0.0000000000000000
  0.5000000000000000  0.0000000000000000  0.0000000000000000
  0.0000000000000000  0.5000000000000000  0.5000000000000000
  0.5000000000000000  0.0000000000000000  0.5000000000000000
 
  0.00000000E+00  0.00000000E+00  0.00000000E+00
  0.00000000E+00  0.00000000E+00  0.00000000E+00
  0.00000000E+00  0.00000000E+00  0.00000000E+00
  0.00000000E+00  0.00000000E+00  0.00000000E+00
  0.00000000E+00  0.00000000E+00  0.00000000E+00
  0.00000000E+00  0.00000000E+00  0.00000000E+00
  0.00000000E+00  0.00000000E+00  0.00000000E+00
  0.00000000E+00  0.00000000E+00  0.00000000E+00
  0.00000000E+00  0.00000000E+00  0.00000000E+00
  0.00000000E+00  0.00000000E+00  0.00000000E+00
  0.00000000E+00  0.00000000E+00  0.00000000E+00
  0.00000000E+00  0.00000000E+00  0.00000000E+00
