#123-P4/m2/m2/m                         
  0.999999999715560     
     2.9594296918646319    0.0000000000000000    0.0000000000000000
     0.0000000000000000    2.9594296918646319    0.0000000000000000
     0.0000000000000000    0.0000000000000000    8.5583850052963424
   Fe   Nb
     5     1
Direct
  0.0000000000000000  0.0000000000000000  0.6605075881962108
  0.0000000000000000  0.0000000000000000  0.3394924118037892
  0.5000000000000000  0.5000000000000000  0.5000000000000000
  0.5000000000000000  0.5000000000000000  0.1806829950652826
  0.5000000000000000  0.5000000000000000  0.8193170049347245
  0.0000000000000000  0.0000000000000000  0.0000000000000000
 
  0.00000000E+00  0.00000000E+00  0.00000000E+00
  0.00000000E+00  0.00000000E+00  0.00000000E+00
  0.00000000E+00  0.00000000E+00  0.00000000E+00
  0.00000000E+00  0.00000000E+00  0.00000000E+00
  0.00000000E+00  0.00000000E+00  0.00000000E+00
  0.00000000E+00  0.00000000E+00  0.00000000E+00
