#216-F-43m                              
  0.999999999465737     
     6.6793931345093096    0.0000000000000000    0.0000000000000000
     0.0000000000000000    6.6793931345093096    0.0000000000000000
     0.0000000000000000    0.0000000000000000    6.6793931345093096
   Fe   Nb
    20     4
Direct
  0.1244668837546570  0.1244668837546570  0.1244668837546570
  0.1244668837546570  0.8755331162453430  0.8755331162453430
  0.8755331162453430  0.1244668837546570  0.8755331162453430
  0.8755331162453430  0.8755331162453430  0.1244668837546570
  0.1244668837546570  0.6244668837546570  0.6244668837546570
  0.1244668837546570  0.3755331162453430  0.3755331162453430
  0.8755331162453430  0.6244668837546570  0.3755331162453430
  0.8755331162453430  0.3755331162453430  0.6244668837546570
  0.6244668837546570  0.1244668837546570  0.6244668837546570
  0.6244668837546570  0.8755331162453430  0.3755331162453430
  0.3755331162453430  0.1244668837546570  0.3755331162453430
  0.3755331162453430  0.8755331162453430  0.6244668837546570
  0.6244668837546570  0.6244668837546570  0.1244668837546570
  0.6244668837546570  0.3755331162453430  0.8755331162453430
  0.3755331162453430  0.6244668837546570  0.8755331162453430
  0.3755331162453430  0.3755331162453430  0.1244668837546570
  0.7500000000000000  0.7500000000000000  0.7500000000000000
  0.7500000000000000  0.2500000000000000  0.2500000000000000
  0.2500000000000000  0.7500000000000000  0.2500000000000000
  0.2500000000000000  0.2500000000000000  0.7500000000000000
  0.5000000000000000  0.5000000000000000  0.5000000000000000
  0.5000000000000000  0.0000000000000000  0.0000000000000000
  0.0000000000000000  0.5000000000000000  0.0000000000000000
  0.0000000000000000  0.0000000000000000  0.5000000000000000
 
  0.00000000E+00  0.00000000E+00  0.00000000E+00
  0.00000000E+00  0.00000000E+00  0.00000000E+00
  0.00000000E+00  0.00000000E+00  0.00000000E+00
  0.00000000E+00  0.00000000E+00  0.00000000E+00
  0.00000000E+00  0.00000000E+00  0.00000000E+00
  0.00000000E+00  0.00000000E+00  0.00000000E+00
  0.00000000E+00  0.00000000E+00  0.00000000E+00
  0.00000000E+00  0.00000000E+00  0.00000000E+00
  0.00000000E+00  0.00000000E+00  0.00000000E+00
  0.00000000E+00  0.00000000E+00  0.00000000E+00
  0.00000000E+00  0.00000000E+00  0.00000000E+00
  0.00000000E+00  0.00000000E+00  0.00000000E+00
  0.00000000E+00  0.00000000E+00  0.00000000E+00
  0.00000000E+00  0.00000000E+00  0.00000000E+00
  0.00000000E+00  0.00000000E+00  0.00000000E+00
  0.00000000E+00  0.00000000E+00  0.00000000E+00
  0.00000000E+00  0.00000000E+00  0.00000000E+00
  0.00000000E+00  0.00000000E+00  0.00000000E+00
  0.00000000E+00  0.00000000E+00  0.00000000E+00
  0.00000000E+00  0.00000000E+00  0.00000000E+00
  0.00000000E+00  0.00000000E+00  0.00000000E+00
  0.00000000E+00  0.00000000E+00  0.00000000E+00
  0.00000000E+00  0.00000000E+00  0.00000000E+00
  0.00000000E+00  0.00000000E+00  0.00000000E+00
