#164-P-32/m1                            
   1.00000000023926     
     4.1025290807739454    0.0000000000000000    0.0000000000000000
    -2.0512645403869727    3.5528944037146579    0.0000000000000000
     0.0000000000000000    0.0000000000000000    5.0601857438908802
   Fe   Nb
     5     1
Direct
  0.3333299999999966  0.6666700000000034  0.3381934281800625
  0.6666600000000003  0.3333299999999966  0.6618065718199375
  0.3333299999999966  0.6666700000000034  0.8188256042038518
  0.6666600000000003  0.3333299999999966  0.1811743957961482
  0.0000000000000000  0.0000000000000000  0.5000000000000000
  0.0000000000000000  0.0000000000000000  0.0000000000000000
 
  0.00000000E+00  0.00000000E+00  0.00000000E+00
  0.00000000E+00  0.00000000E+00  0.00000000E+00
  0.00000000E+00  0.00000000E+00  0.00000000E+00
  0.00000000E+00  0.00000000E+00  0.00000000E+00
  0.00000000E+00  0.00000000E+00  0.00000000E+00
  0.00000000E+00  0.00000000E+00  0.00000000E+00
