#65-C2/m2/m2/m                          
  0.999999999026578     
     8.8383593434805121    0.0000000000000000    0.0000000000000000
     0.0000000000000000    4.1117605709237512    0.0000000000000000
     0.0000000000000000    0.0000000000000000    4.0768329913747099
   Fe   Nb
    10     2
Direct
  0.5000000000000000  0.0000000000000000  0.5000000000000000
  0.0000000000000000  0.5000000000000000  0.5000000000000000
  0.8272310659887836  0.0000000000000000  0.5000000000000000
  0.1727689340112164  0.0000000000000000  0.5000000000000000
  0.3272310659887836  0.5000000000000000  0.5000000000000000
  0.6727689340112164  0.5000000000000000  0.5000000000000000
  0.6695380038668617  0.0000000000000000  0.0000000000000000
  0.3304619961331383  0.0000000000000000  0.0000000000000000
  0.1695380038668617  0.5000000000000000  0.0000000000000000
  0.8304619961331383  0.5000000000000000  0.0000000000000000
  0.0000000000000000  0.0000000000000000  0.0000000000000000
  0.5000000000000000  0.5000000000000000  0.0000000000000000
 
  0.00000000E+00  0.00000000E+00  0.00000000E+00
  0.00000000E+00  0.00000000E+00  0.00000000E+00
  0.00000000E+00  0.00000000E+00  0.00000000E+00
  0.00000000E+00  0.00000000E+00  0.00000000E+00
  0.00000000E+00  0.00000000E+00  0.00000000E+00
  0.00000000E+00  0.00000000E+00  0.00000000E+00
  0.00000000E+00  0.00000000E+00  0.00000000E+00
  0.00000000E+00  0.00000000E+00  0.00000000E+00
  0.00000000E+00  0.00000000E+00  0.00000000E+00
  0.00000000E+00  0.00000000E+00  0.00000000E+00
  0.00000000E+00  0.00000000E+00  0.00000000E+00
  0.00000000E+00  0.00000000E+00  0.00000000E+00
