#12-C12/m1                              
   1.00000000001876     
     9.0851374324824352    0.0000000000000000    0.0006306512887672
     0.0000000000000000    3.0050466186790303    0.0000000000000000
    -1.8411118351160320    0.0000000000000000    5.4616844628150822
   Fe   Nb
    10     2
Direct
  0.6695316102658850  0.0000000000000000  0.8438256742550436
  0.3304683897341150  0.0000000000000000  0.1561743257449564
  0.1695316102658850  0.5000000000000000  0.8438256742550436
  0.8304683897341150  0.5000000000000000  0.1561743257449564
  0.6699189606509179  0.0000000000000000  0.3245350195700212
  0.3300810393490821  0.0000000000000000  0.6754649804299788
  0.1699189606509179  0.5000000000000000  0.3245350195700212
  0.8300810393490821  0.5000000000000000  0.6754649804299788
  0.0000000000000000  0.0000000000000000  0.0000000000000000
  0.5000000000000000  0.5000000000000000  0.0000000000000000
  0.0000000000000000  0.0000000000000000  0.5000000000000000
  0.5000000000000000  0.5000000000000000  0.5000000000000000
 
  0.00000000E+00  0.00000000E+00  0.00000000E+00
  0.00000000E+00  0.00000000E+00  0.00000000E+00
  0.00000000E+00  0.00000000E+00  0.00000000E+00
  0.00000000E+00  0.00000000E+00  0.00000000E+00
  0.00000000E+00  0.00000000E+00  0.00000000E+00
  0.00000000E+00  0.00000000E+00  0.00000000E+00
  0.00000000E+00  0.00000000E+00  0.00000000E+00
  0.00000000E+00  0.00000000E+00  0.00000000E+00
  0.00000000E+00  0.00000000E+00  0.00000000E+00
  0.00000000E+00  0.00000000E+00  0.00000000E+00
  0.00000000E+00  0.00000000E+00  0.00000000E+00
  0.00000000E+00  0.00000000E+00  0.00000000E+00
