#8-C1m1                                 
  0.999999999546402     
     9.5633839458105676    0.0000000000000000    0.0075982456110797
     0.0000000000000000    2.8677515346544382    0.0000000000000000
    -3.3323953401154371    0.0000000000000000    6.0525957892874365
   Fe   S 
    12     2
Direct
  0.1961447699642970  0.0000000000000000  0.9201604102090679
  0.6961447699642970  0.5000000000000000  0.9201604102090679
  0.5638687454576655  0.0000000000000000  0.1045520300540237
  0.0638687454576655  0.5000000000000000  0.1045520300540237
  0.8648857651072422 -0.0000000000000000  0.8074952066017579
  0.3648857651072421  0.5000000000000000  0.8074952066017579
  0.9000607111005852 -0.0000000000000000  0.2216866117900500
  0.4000607111005851  0.5000000000000000  0.2216866117900500
  0.4956789149748026 -0.0000000000000000  0.6298498144961249
  0.9956789149748027  0.5000000000000000  0.6298498144961249
  0.1642679685857843  0.0000000000000000  0.5234393208670240
  0.6642679685857844  0.5000000000000000  0.5234393208670240
  0.2680331248096284 -0.0000000000000000  0.3091766059819578
  0.7680331248096285  0.5000000000000000  0.3091766059819578
 
  0.00000000E+00  0.00000000E+00  0.00000000E+00
  0.00000000E+00  0.00000000E+00  0.00000000E+00
  0.00000000E+00  0.00000000E+00  0.00000000E+00
  0.00000000E+00  0.00000000E+00  0.00000000E+00
  0.00000000E+00  0.00000000E+00  0.00000000E+00
  0.00000000E+00  0.00000000E+00  0.00000000E+00
  0.00000000E+00  0.00000000E+00  0.00000000E+00
  0.00000000E+00  0.00000000E+00  0.00000000E+00
  0.00000000E+00  0.00000000E+00  0.00000000E+00
  0.00000000E+00  0.00000000E+00  0.00000000E+00
  0.00000000E+00  0.00000000E+00  0.00000000E+00
  0.00000000E+00  0.00000000E+00  0.00000000E+00
  0.00000000E+00  0.00000000E+00  0.00000000E+00
  0.00000000E+00  0.00000000E+00  0.00000000E+00
