#44-Imm2                                
   1.00000000068828     
    14.3343484688517808    0.0000000000000000    0.0000000000000000
     0.0000000000000000    2.9075735069495208    0.0000000000000000
     0.0000000000000000    0.0000000000000000    4.0771016405256475
   Fe   S 
    12     2
Direct
  0.2499271250303239 -0.0000000000000000  0.0840312330397783
  0.7500728749696761 -0.0000000000000000  0.0840312330397783
  0.7499271250303239  0.5000000000000000  0.5840312330397783
  0.2500728749696761  0.5000000000000000  0.5840312330397783
  0.6125329220493004 -0.0000000000000000  0.5955391503537755
  0.3874670779506996 -0.0000000000000000  0.5955391503537755
  0.1125329220493004  0.5000000000000000  0.0955391503537755
  0.8874670779506996  0.5000000000000000  0.0955391503537755
  0.8878311455453335  0.0000000000000000  0.5818993455287570
  0.1121688544546666  0.0000000000000000  0.5818993455287570
  0.3878311455453334  0.5000000000000000  0.0818993455287570
  0.6121688544546665  0.5000000000000000  0.0818993455287570
  0.0000000000000000  0.5000000000000000  0.7189805421553717
  0.5000000000000000 -0.0000000000000000  0.2189805421553716
 
  0.00000000E+00  0.00000000E+00  0.00000000E+00
  0.00000000E+00  0.00000000E+00  0.00000000E+00
  0.00000000E+00  0.00000000E+00  0.00000000E+00
  0.00000000E+00  0.00000000E+00  0.00000000E+00
  0.00000000E+00  0.00000000E+00  0.00000000E+00
  0.00000000E+00  0.00000000E+00  0.00000000E+00
  0.00000000E+00  0.00000000E+00  0.00000000E+00
  0.00000000E+00  0.00000000E+00  0.00000000E+00
  0.00000000E+00  0.00000000E+00  0.00000000E+00
  0.00000000E+00  0.00000000E+00  0.00000000E+00
  0.00000000E+00  0.00000000E+00  0.00000000E+00
  0.00000000E+00  0.00000000E+00  0.00000000E+00
  0.00000000E+00  0.00000000E+00  0.00000000E+00
  0.00000000E+00  0.00000000E+00  0.00000000E+00
