#25-Pmm2                                
   1.00000000018775     
     7.1898342592040922    0.0000000000000000    0.0000000000000000
     0.0000000000000000    2.9022889587589242    0.0000000000000000
     0.0000000000000000    0.0000000000000000    4.0724005833688244
   Fe   S 
     6     1
Direct
  0.7235649687298956  0.5000000000000000  0.7441658684574989
  0.2764350312701043  0.5000000000000000  0.7441658684574989
 -0.0000000000000000  0.5000000000000000  0.2403286203121258
 -0.0000000000000000  0.0000000000000000  0.7411349230950204
  0.2738436560765276 -0.0000000000000000  0.2320411862833925
  0.7261563439234725 -0.0000000000000000  0.2320411862833925
  0.5000000000000000  0.0000000000000000  0.6051223471110794
 
  0.00000000E+00  0.00000000E+00  0.00000000E+00
  0.00000000E+00  0.00000000E+00  0.00000000E+00
  0.00000000E+00  0.00000000E+00  0.00000000E+00
  0.00000000E+00  0.00000000E+00  0.00000000E+00
  0.00000000E+00  0.00000000E+00  0.00000000E+00
  0.00000000E+00  0.00000000E+00  0.00000000E+00
  0.00000000E+00  0.00000000E+00  0.00000000E+00
