#6-P1m1                                 
   1.00000000158413     
     4.0725254509519653    0.0000000000000000    0.0054998764706692
     0.0000000000000000    2.9022427431705946    0.0000000000000000
    -0.0962155412768516    0.0000000000000000    7.1890599470057834
   Fe   S 
     6     1
Direct
  0.5865083743666984  0.0000000000000000  0.5334173728116218
  0.0974309324173462  0.0000000000000000  0.8127977004668551
  0.0840221992220008  0.0000000000000000  0.2600734952900193
  0.5848211525830462  0.5000000000000000  0.8061092623655708
  0.5726532768699735  0.5000000000000000  0.2584947949332390
  0.0873507430072903  0.5000000000000000  0.5357707769671040
  0.9519533215336361  0.5000000000000000  0.0360165971655975
 
  0.00000000E+00  0.00000000E+00  0.00000000E+00
  0.00000000E+00  0.00000000E+00  0.00000000E+00
  0.00000000E+00  0.00000000E+00  0.00000000E+00
  0.00000000E+00  0.00000000E+00  0.00000000E+00
  0.00000000E+00  0.00000000E+00  0.00000000E+00
  0.00000000E+00  0.00000000E+00  0.00000000E+00
  0.00000000E+00  0.00000000E+00  0.00000000E+00
