#87-I4/m                                
  0.999999999821249     
     5.8159818597284820    0.0000000042650164   -0.0000000000000000
    -0.0000000042650164    5.8159818597284820    0.0000000000000000
    -0.0000000000000000   -0.0000000000000000    3.7826120433441197
   Fe   N 
    10     2
Direct
  0.6038932258090857  0.8093565498470288 -0.0000000000000000
  0.3961067741909144  0.1906434501529712  0.0000000000000000
  0.1906434501529712  0.6038932258090857 -0.0000000000000000
  0.8093565498470288  0.3961067741909144  0.0000000000000000
  0.1038932258090857  0.3093565498470287  0.5000000000000000
  0.8961067741909143  0.6906434501529712  0.5000000000000000
  0.6906434501529712  0.1038932258090857  0.5000000000000000
  0.3093565498470287  0.8961067741909143  0.5000000000000000
  0.0000000000000000 -0.0000000000000000 -0.0000000000000000
  0.5000000000000000  0.5000000000000000  0.5000000000000000
  0.0000000000000000 -0.0000000000000000  0.5000000000000000
  0.5000000000000000  0.5000000000000000 -0.0000000000000000
 
  0.00000000E+00  0.00000000E+00  0.00000000E+00
  0.00000000E+00  0.00000000E+00  0.00000000E+00
  0.00000000E+00  0.00000000E+00  0.00000000E+00
  0.00000000E+00  0.00000000E+00  0.00000000E+00
  0.00000000E+00  0.00000000E+00  0.00000000E+00
  0.00000000E+00  0.00000000E+00  0.00000000E+00
  0.00000000E+00  0.00000000E+00  0.00000000E+00
  0.00000000E+00  0.00000000E+00  0.00000000E+00
  0.00000000E+00  0.00000000E+00  0.00000000E+00
  0.00000000E+00  0.00000000E+00  0.00000000E+00
  0.00000000E+00  0.00000000E+00  0.00000000E+00
  0.00000000E+00  0.00000000E+00  0.00000000E+00
