#47 (P m m m)                           
   2.94889999561391     
     0.0000000000000000    0.0000000000000000    0.9240666661400960
     1.0032976170818411    0.0000000000000000    0.0000000000000000
     0.0000000000000000    2.8092320207665904    0.0000000000000000
   Fe   N 
     5     1
Direct
 -0.0000000000000000  0.5000000000000000  0.3285271669046220
 -0.0000000000000000  0.5000000000000000  0.6714728330953782
  0.5000000000000000  0.0000000000000000  0.8519215126413251
  0.5000000000000000  0.0000000000000000  0.1480784873586749
  0.5000000000000000 -0.0000000000000000  0.5000000000000000
 -0.0000000000000000  0.0000000000000000 -0.0000000000000000
 
  0.00000000E+00  0.00000000E+00  0.00000000E+00
  0.00000000E+00  0.00000000E+00  0.00000000E+00
  0.00000000E+00  0.00000000E+00  0.00000000E+00
  0.00000000E+00  0.00000000E+00  0.00000000E+00
  0.00000000E+00  0.00000000E+00  0.00000000E+00
  0.00000000E+00  0.00000000E+00  0.00000000E+00
