#12 (C 2/m) [unique axis c] cell choice 
   8.45647999070664     
     0.4703759629156113    0.0000000000000000   -0.6318232886501119
    -0.5460348252782967    0.1600253525304791    0.0414386754397956
     0.5460348252782967    0.1600253525304791   -0.0414386754397956
   Fe   N 
     5     1
Direct
  0.6714378538155475  0.7746005987919957  0.2253994012080042
  0.3285621461844525  0.2253994012080042  0.7746005987919957
  0.1107880846245736  0.4037885271488613  0.5962114728511387
  0.8892119153754264  0.5962114728511387  0.4037885271488613
  0.5000000000000000  0.0000000000000000 -0.0000000000000000
  0.0000000000000000  0.0000000000000000 -0.0000000000000000
 
  0.00000000E+00  0.00000000E+00  0.00000000E+00
  0.00000000E+00  0.00000000E+00  0.00000000E+00
  0.00000000E+00  0.00000000E+00  0.00000000E+00
  0.00000000E+00  0.00000000E+00  0.00000000E+00
  0.00000000E+00  0.00000000E+00  0.00000000E+00
  0.00000000E+00  0.00000000E+00  0.00000000E+00
