#8 (C m) [unique axis c] cell choice 1  
   8.87608997970433     
     0.4553870472879588    0.0000000000000000   -0.5717668079649294
    -0.5104205618976846    0.1576955315720963    0.0062374918456555
     0.5104205618976846    0.1576955315720963   -0.0062374918456555
   Fe   N 
     5     1
Direct
  0.4889117564618758  0.0062013255830379  0.9937986744169620
  0.0932466638081564  0.4118878586079518  0.5881121413920481
  0.6525617530139649  0.7783526855507790  0.2216473144492211
  0.3244952211657402  0.2337612527006066  0.7662387472993933
  0.8840041979471819  0.5997377732915211  0.4002622267084791
  0.9887604076030695  0.0057891042660905  0.9942108957339095
 
  0.00000000E+00  0.00000000E+00  0.00000000E+00
  0.00000000E+00  0.00000000E+00  0.00000000E+00
  0.00000000E+00  0.00000000E+00  0.00000000E+00
  0.00000000E+00  0.00000000E+00  0.00000000E+00
  0.00000000E+00  0.00000000E+00  0.00000000E+00
  0.00000000E+00  0.00000000E+00  0.00000000E+00
