#2 (P -1)                               
   2.59700000450843     
     0.9992607121318392   -0.0014662985830189   -0.0001235799379538
    -0.1913754149927056    1.6403106675667027    0.0015857661800939
    -0.4026402079586165   -0.6351852408061605    2.2290649568975596
   Fe   N 
     5     1
Direct
  0.6293107163501490  0.3264032448443927  0.1139230322496548
  0.3706892836498509  0.6735967551556072  0.8860769677503452
  0.0964651360372746  0.9010451533778735  0.3017253554978190
  0.9035348639627254  0.0989548466221266  0.6982746445021810
  0.5000000000000000  0.5000000000000000  0.5000000000000000
 -0.0000000000000000 -0.0000000000000000 -0.0000000000000000
 
  0.00000000E+00  0.00000000E+00  0.00000000E+00
  0.00000000E+00  0.00000000E+00  0.00000000E+00
  0.00000000E+00  0.00000000E+00  0.00000000E+00
  0.00000000E+00  0.00000000E+00  0.00000000E+00
  0.00000000E+00  0.00000000E+00  0.00000000E+00
  0.00000000E+00  0.00000000E+00  0.00000000E+00
