#87-I4/m                                
   1.00000000122626     
     5.8159568209035593   -0.0000000143059972    0.0000000000000000
     0.0000000143059972    5.8159568209035593   -0.0000000000000000
     0.0000000000000000    0.0000000000000000    3.7837857573138929
   Fe   N 
    10     2
Direct
  0.8960712611738112  0.3093498747458989  0.0000000000000000
  0.1039287388261889  0.6906501252541011 -0.0000000000000000
  0.6906501252541011  0.8960712611738112  0.0000000000000000
  0.3093498747458989  0.1039287388261889  0.0000000000000000
  0.3960712611738111  0.8093498747458989  0.5000000000000000
  0.6039287388261888  0.1906501252541011  0.5000000000000000
  0.1906501252541011  0.3960712611738111  0.5000000000000000
  0.8093498747458989  0.6039287388261888  0.5000000000000000
 -0.0000000000000000 -0.0000000000000000  0.5000000000000000
  0.5000000000000000  0.5000000000000000  0.0000000000000000
 -0.0000000000000000 -0.0000000000000000  0.0000000000000000
  0.5000000000000000  0.5000000000000000  0.5000000000000000
 
  0.00000000E+00  0.00000000E+00  0.00000000E+00
  0.00000000E+00  0.00000000E+00  0.00000000E+00
  0.00000000E+00  0.00000000E+00  0.00000000E+00
  0.00000000E+00  0.00000000E+00  0.00000000E+00
  0.00000000E+00  0.00000000E+00  0.00000000E+00
  0.00000000E+00  0.00000000E+00  0.00000000E+00
  0.00000000E+00  0.00000000E+00  0.00000000E+00
  0.00000000E+00  0.00000000E+00  0.00000000E+00
  0.00000000E+00  0.00000000E+00  0.00000000E+00
  0.00000000E+00  0.00000000E+00  0.00000000E+00
  0.00000000E+00  0.00000000E+00  0.00000000E+00
  0.00000000E+00  0.00000000E+00  0.00000000E+00
