#12 (C 2/m) [unique axis c] cell choice 
   12.5568000278212     
     0.0024369592811849    0.0000000000000000   -0.2059089154296100
    -0.5003328338912347    0.1568956489404102   -0.0005434532408916
     0.5003328338912347    0.1568956489404102    0.0005434532408916
   Fe   N 
     5     1
Direct
  0.8188963695216565  0.7036066509203306  0.2963933490796695
  0.1811036304783436  0.2963933490796695  0.7036066509203306
  0.5040522280046908  0.8873397213349750  0.1126602786650250
  0.4959477719953092  0.1126602786650250  0.8873397213349750
  0.0000000000000000  0.5000000000000000  0.5000000000000000
  0.0000000000000000 -0.0000000000000000  0.0000000000000000
 
  0.00000000E+00  0.00000000E+00  0.00000000E+00
  0.00000000E+00  0.00000000E+00  0.00000000E+00
  0.00000000E+00  0.00000000E+00  0.00000000E+00
  0.00000000E+00  0.00000000E+00  0.00000000E+00
  0.00000000E+00  0.00000000E+00  0.00000000E+00
  0.00000000E+00  0.00000000E+00  0.00000000E+00
