#87-I4/m                                
   1.00000000128061     
     5.8173811684933376    0.0000000036835141   -0.0000000000000000
    -0.0000000036835141    5.8173811684933376    0.0000000000000000
     0.0000000000000000   -0.0000000000000000    3.7829075220043897
   Fe   N 
    10     2
Direct
  0.1038275411704348  0.6906509335970328  0.0000000000000000
  0.8961724588295652  0.3093490664029672 -0.0000000000000000
  0.3093490664029672  0.1038275411704348 -0.0000000000000000
  0.6906509335970328  0.8961724588295652  0.0000000000000000
  0.6038275411704348  0.1906509335970328  0.5000000000000000
  0.3961724588295651  0.8093490664029672  0.5000000000000000
  0.8093490664029672  0.6038275411704348  0.5000000000000000
  0.1906509335970328  0.3961724588295651  0.5000000000000000
  0.0000000000000000 -0.0000000000000000  0.5000000000000000
  0.5000000000000000  0.5000000000000000 -0.0000000000000000
  0.0000000000000000 -0.0000000000000000 -0.0000000000000000
  0.5000000000000000  0.5000000000000000  0.5000000000000000
 
  0.00000000E+00  0.00000000E+00  0.00000000E+00
  0.00000000E+00  0.00000000E+00  0.00000000E+00
  0.00000000E+00  0.00000000E+00  0.00000000E+00
  0.00000000E+00  0.00000000E+00  0.00000000E+00
  0.00000000E+00  0.00000000E+00  0.00000000E+00
  0.00000000E+00  0.00000000E+00  0.00000000E+00
  0.00000000E+00  0.00000000E+00  0.00000000E+00
  0.00000000E+00  0.00000000E+00  0.00000000E+00
  0.00000000E+00  0.00000000E+00  0.00000000E+00
  0.00000000E+00  0.00000000E+00  0.00000000E+00
  0.00000000E+00  0.00000000E+00  0.00000000E+00
  0.00000000E+00  0.00000000E+00  0.00000000E+00
