#12 (C 2/m) [unique axis c] cell choice 
   9.05983000858343     
     0.4529351874859349    0.0000000000000000   -0.5547063193786945
    -0.5001644069166635    0.1545105648971350    0.0000445733927042
     0.5001644069166635    0.1545105648971350   -0.0000445733927042
   Fe   N 
     5     1
Direct
  0.6640359634737771  0.7722941100813252  0.2277058899186748
  0.3359640365262229  0.2277058899186748  0.7722941100813252
  0.8954462142515950  0.5939344826914426  0.4060655173085574
  0.1045537857484050  0.4060655173085574  0.5939344826914426
  0.5000000000000000  0.0000000000000000 -0.0000000000000000
 -0.0000000000000000  0.0000000000000000 -0.0000000000000000
 
  0.00000000E+00  0.00000000E+00  0.00000000E+00
  0.00000000E+00  0.00000000E+00  0.00000000E+00
  0.00000000E+00  0.00000000E+00  0.00000000E+00
  0.00000000E+00  0.00000000E+00  0.00000000E+00
  0.00000000E+00  0.00000000E+00  0.00000000E+00
  0.00000000E+00  0.00000000E+00  0.00000000E+00
