#156-P3m1                               
   1.00000000002854     
     4.1409288137298850   -0.0000000000000000   -0.0000000000000000
    -2.0704644068649425    3.5861495479530401    0.0000000000000000
     0.0000000000000000    0.0000000000000000    7.6326160484349233
   Fe   Sb
     6     2
Direct
  0.6666700000000034  0.3333299999999966  0.0498704102015763
  0.6666700000000034  0.3333299999999966  0.7041459711988421
  0.3333299999999966  0.6666700000000034  0.9295940742253075
  0.3333299999999966  0.6666700000000034  0.6019359240680477
  0.6666700000000034  0.3333299999999966  0.3925300237987500
 -0.0000000000000000 -0.0000000000000000  0.4835999872321822
  0.3333299999999966  0.6666700000000034  0.2555879778856026
 -0.0000000000000000 -0.0000000000000000  0.8396156313896939
 
  0.00000000E+00  0.00000000E+00  0.00000000E+00
  0.00000000E+00  0.00000000E+00  0.00000000E+00
  0.00000000E+00  0.00000000E+00  0.00000000E+00
  0.00000000E+00  0.00000000E+00  0.00000000E+00
  0.00000000E+00  0.00000000E+00  0.00000000E+00
  0.00000000E+00  0.00000000E+00  0.00000000E+00
  0.00000000E+00  0.00000000E+00  0.00000000E+00
  0.00000000E+00  0.00000000E+00  0.00000000E+00
