#12-C12/m1                              
  0.999999999561795     
    12.6477651481195181    0.0000000000000000    0.0049318575155384
     0.0000000000000000    3.9505834036212870    0.0000000000000000
    -1.3753593230990750    0.0000000000000000    4.7881803955470970
   Fe   Sb
    12     4
Direct
  0.4067279207827809  0.0000000000000000  0.6206971210010738
  0.5932720792172191 -0.0000000000000000  0.3793028789989262
  0.9067279207827809  0.5000000000000000  0.6206971210010738
  0.0932720792172192  0.5000000000000000  0.3793028789989262
  0.4049450434492383 -0.0000000000000000  0.1133712654456013
  0.5950549565507618  0.0000000000000000  0.8866287345543987
  0.9049450434492382  0.5000000000000000  0.1133712654456013
  0.0950549565507617  0.5000000000000000  0.8866287345543987
 -0.0000000000000000 -0.0000000000000000 -0.0000000000000000
  0.5000000000000000  0.5000000000000000 -0.0000000000000000
 -0.0000000000000000  0.0000000000000000  0.5000000000000000
  0.5000000000000000  0.5000000000000000  0.5000000000000000
  0.2107023323588471 -0.0000000000000000  0.7266690209530393
  0.7892976676411529 -0.0000000000000000  0.2733309790469607
  0.7107023323588471  0.5000000000000000  0.7266690209530393
  0.2892976676411529  0.5000000000000000  0.2733309790469607
 
  0.00000000E+00  0.00000000E+00  0.00000000E+00
  0.00000000E+00  0.00000000E+00  0.00000000E+00
  0.00000000E+00  0.00000000E+00  0.00000000E+00
  0.00000000E+00  0.00000000E+00  0.00000000E+00
  0.00000000E+00  0.00000000E+00  0.00000000E+00
  0.00000000E+00  0.00000000E+00  0.00000000E+00
  0.00000000E+00  0.00000000E+00  0.00000000E+00
  0.00000000E+00  0.00000000E+00  0.00000000E+00
  0.00000000E+00  0.00000000E+00  0.00000000E+00
  0.00000000E+00  0.00000000E+00  0.00000000E+00
  0.00000000E+00  0.00000000E+00  0.00000000E+00
  0.00000000E+00  0.00000000E+00  0.00000000E+00
  0.00000000E+00  0.00000000E+00  0.00000000E+00
  0.00000000E+00  0.00000000E+00  0.00000000E+00
  0.00000000E+00  0.00000000E+00  0.00000000E+00
  0.00000000E+00  0.00000000E+00  0.00000000E+00
