#8-C1m1                                 
  0.999999999638473     
     8.7731621415794532    0.0000000000000000    0.0202651502070981
     0.0000000000000000    4.0874949759404409    0.0000000000000000
    -4.0983349063997156    0.0000000000000000    6.3315473372639230
   Fe   Sb
    12     4
Direct
  0.7133302432358767  0.0000000000000000  0.2766592065887766
  0.2133302432358767  0.5000000000000000  0.2766592065887766
  0.3910761441880768 -0.0000000000000000  0.4951009776028966
  0.8910761441880768  0.5000000000000000  0.4951009776028966
  0.3856078617549917  0.0000000000000000  0.1625498000609265
  0.8856078617549916  0.5000000000000000  0.1625498000609265
  0.0051877040229439  0.0000000000000000  0.7127083251700510
  0.5051877040229439  0.5000000000000000  0.7127083251700510
  0.0574158853981349  0.0000000000000000  0.0603141720465171
  0.5574158853981348  0.5000000000000000  0.0603141720465171
  0.3712699866845221  0.0000000000000000  0.8261385829738099
  0.8712699866845222  0.5000000000000000  0.8261385829738099
  0.0750932013887614  0.0000000000000000  0.4247121113568345
  0.5750932013887614  0.5000000000000000  0.4247121113568345
  0.7056689733267006  0.0000000000000000  0.9048368242001795
  0.2056689733267007  0.5000000000000000  0.9048368242001795
 
  0.00000000E+00  0.00000000E+00  0.00000000E+00
  0.00000000E+00  0.00000000E+00  0.00000000E+00
  0.00000000E+00  0.00000000E+00  0.00000000E+00
  0.00000000E+00  0.00000000E+00  0.00000000E+00
  0.00000000E+00  0.00000000E+00  0.00000000E+00
  0.00000000E+00  0.00000000E+00  0.00000000E+00
  0.00000000E+00  0.00000000E+00  0.00000000E+00
  0.00000000E+00  0.00000000E+00  0.00000000E+00
  0.00000000E+00  0.00000000E+00  0.00000000E+00
  0.00000000E+00  0.00000000E+00  0.00000000E+00
  0.00000000E+00  0.00000000E+00  0.00000000E+00
  0.00000000E+00  0.00000000E+00  0.00000000E+00
  0.00000000E+00  0.00000000E+00  0.00000000E+00
  0.00000000E+00  0.00000000E+00  0.00000000E+00
  0.00000000E+00  0.00000000E+00  0.00000000E+00
  0.00000000E+00  0.00000000E+00  0.00000000E+00
