#221-P4/m-32/m                          
  0.999999999749136     
     3.8237922982496713   -0.0000000000000000   -0.0000000000000000
     0.0000000000000000    3.8237922982496713    0.0000000000000000
    -0.0000000000000000    0.0000000000000000    3.8237922982496713
   Fe   Sb
     3     1
Direct
  0.5000000000000000  0.0000000000000000 -0.0000000000000000
 -0.0000000000000000 -0.0000000000000000  0.5000000000000000
 -0.0000000000000000  0.5000000000000000 -0.0000000000000000
  0.5000000000000000  0.5000000000000000  0.5000000000000000
 
  0.00000000E+00  0.00000000E+00  0.00000000E+00
  0.00000000E+00  0.00000000E+00  0.00000000E+00
  0.00000000E+00  0.00000000E+00  0.00000000E+00
  0.00000000E+00  0.00000000E+00  0.00000000E+00
