#63-C2/m2/c21/m                         
  0.999999999410009     
     3.9912836578498583    0.0000000000000000    0.0000000000000000
     0.0000000000000000   14.8601691317948017    0.0000000000000000
     0.0000000000000000   -0.0000000000000000    3.9820764534250115
   Fe   Sb
    12     4
Direct
 -0.0000000000000000  0.5492400587639069  0.2500000000000000
  0.0000000000000000  0.4507599412360932  0.7500000000000000
  0.5000000000000000  0.0492400587639068  0.2500000000000000
  0.5000000000000000  0.9507599412360931  0.7500000000000000
 -0.0000000000000000  0.3550193357363723  0.2500000000000000
  0.0000000000000000  0.6449806642636279  0.7500000000000000
  0.5000000000000000  0.8550193357363721  0.2500000000000000
  0.5000000000000000  0.1449806642636278  0.7500000000000000
 -0.0000000000000000  0.9505916136640019  0.2500000000000000
  0.0000000000000000  0.0494083863359982  0.7500000000000000
  0.5000000000000000  0.4505916136640019  0.2500000000000000
  0.5000000000000000  0.5494083863359981  0.7500000000000000
  0.0000000000000000  0.1709539371690152  0.2500000000000000
 -0.0000000000000000  0.8290460628309848  0.7500000000000000
  0.5000000000000000  0.6709539371690152  0.2500000000000000
  0.5000000000000000  0.3290460628309849  0.7500000000000000
 
  0.00000000E+00  0.00000000E+00  0.00000000E+00
  0.00000000E+00  0.00000000E+00  0.00000000E+00
  0.00000000E+00  0.00000000E+00  0.00000000E+00
  0.00000000E+00  0.00000000E+00  0.00000000E+00
  0.00000000E+00  0.00000000E+00  0.00000000E+00
  0.00000000E+00  0.00000000E+00  0.00000000E+00
  0.00000000E+00  0.00000000E+00  0.00000000E+00
  0.00000000E+00  0.00000000E+00  0.00000000E+00
  0.00000000E+00  0.00000000E+00  0.00000000E+00
  0.00000000E+00  0.00000000E+00  0.00000000E+00
  0.00000000E+00  0.00000000E+00  0.00000000E+00
  0.00000000E+00  0.00000000E+00  0.00000000E+00
  0.00000000E+00  0.00000000E+00  0.00000000E+00
  0.00000000E+00  0.00000000E+00  0.00000000E+00
  0.00000000E+00  0.00000000E+00  0.00000000E+00
  0.00000000E+00  0.00000000E+00  0.00000000E+00
