#166-R-32/m(hexagonalaxes)              
  0.999999999851951     
     4.0413503961805155    0.0000000000000000   -0.0000000000000000
    -2.0206751980902578    3.4999121086866314    0.0000000000000000
     0.0000000000000000   -0.0000000000000001   24.7780017947990068
   Fe   Sb
    18     6
Direct
 -0.0000000000000000 -0.0000000000000000 -0.0000000000000000
  0.3333299999999966  0.6666700000000034  0.6666700000000034
  0.6666700000000034  0.3333299999999966  0.3333299999999966
  0.0000000000000000 -0.0000000000000000  0.8952548235009964
  0.0000000000000000  0.0000000000000000  0.1047451764990035
  0.3333299999999966  0.6666700000000034  0.5619248235009998
  0.3333299999999966  0.6666700000000034  0.7714151764989999
  0.6666700000000034  0.3333299999999966  0.2285848235010002
  0.6666700000000034  0.3333299999999966  0.4380751764990000
 -0.0000000000000000 -0.0000000000000000  0.5000000000000000
  0.3333299999999966  0.6666700000000034  0.1666700000000034
  0.6666700000000034  0.3333299999999966  0.8333299999999966
  0.0000000000000000  0.0000000000000000  0.7990422984906050
 -0.0000000000000000 -0.0000000000000000  0.2009577015093949
  0.3333299999999966  0.6666700000000034  0.4657122984906014
  0.3333299999999966  0.6666700000000034  0.8676277015093984
  0.6666700000000034  0.3333299999999966  0.1323722984906016
  0.6666700000000034  0.3333299999999966  0.5342877015093986
  0.0000000000000000 -0.0000000000000000  0.3897733685983617
 -0.0000000000000000  0.0000000000000000  0.6102266314016382
  0.3333299999999966  0.6666700000000034  0.0564433685983652
  0.3333299999999966  0.6666700000000034  0.2768966314016346
  0.6666700000000034  0.3333299999999966  0.7231033685983654
  0.6666700000000034  0.3333299999999966  0.9435566314016348
 
  0.00000000E+00  0.00000000E+00  0.00000000E+00
  0.00000000E+00  0.00000000E+00  0.00000000E+00
  0.00000000E+00  0.00000000E+00  0.00000000E+00
  0.00000000E+00  0.00000000E+00  0.00000000E+00
  0.00000000E+00  0.00000000E+00  0.00000000E+00
  0.00000000E+00  0.00000000E+00  0.00000000E+00
  0.00000000E+00  0.00000000E+00  0.00000000E+00
  0.00000000E+00  0.00000000E+00  0.00000000E+00
  0.00000000E+00  0.00000000E+00  0.00000000E+00
  0.00000000E+00  0.00000000E+00  0.00000000E+00
  0.00000000E+00  0.00000000E+00  0.00000000E+00
  0.00000000E+00  0.00000000E+00  0.00000000E+00
  0.00000000E+00  0.00000000E+00  0.00000000E+00
  0.00000000E+00  0.00000000E+00  0.00000000E+00
  0.00000000E+00  0.00000000E+00  0.00000000E+00
  0.00000000E+00  0.00000000E+00  0.00000000E+00
  0.00000000E+00  0.00000000E+00  0.00000000E+00
  0.00000000E+00  0.00000000E+00  0.00000000E+00
  0.00000000E+00  0.00000000E+00  0.00000000E+00
  0.00000000E+00  0.00000000E+00  0.00000000E+00
  0.00000000E+00  0.00000000E+00  0.00000000E+00
  0.00000000E+00  0.00000000E+00  0.00000000E+00
  0.00000000E+00  0.00000000E+00  0.00000000E+00
  0.00000000E+00  0.00000000E+00  0.00000000E+00
