#8-C1m1                                 
   1.00000000029885     
     8.8786502317356089    0.0000000000000000    0.0231404112283839
     0.0000000000000000    4.0702224364666169    0.0000000000000000
    -3.5626986750616205    0.0000000000000000    6.4329842336907754
   Fe   Sb
    12     4
Direct
  0.2326978136634199  0.0000000000000000  0.0227668187892535
  0.7326978136634200  0.5000000000000000  0.0227668187892535
  0.7705610126576490 -0.0000000000000000  0.2381348171908521
  0.2705610126576489  0.5000000000000000  0.2381348171908521
  0.5254728337858656  0.0000000000000000  0.3305036767639252
  0.0254728337858657  0.5000000000000000  0.3305036767639252
  0.2948927547463099  0.0000000000000000  0.4439074618400840
  0.7948927547463100  0.5000000000000000  0.4439074618400840
  0.0031705037140920  0.0000000000000000  0.1355587077686465
  0.5031705037140919  0.5000000000000000  0.1355587077686465
  0.8058878562522185 -0.0000000000000000  0.6610081733359032
  0.3058878562522114  0.5000000000000000  0.6610081733359032
  0.0663162056777303  0.0000000000000000  0.5825356555763508
  0.5663162056777303  0.5000000000000000  0.5825356555763508
  0.4796210195027169  0.0000000000000000  0.9037146887349883
  0.9796210195027168  0.5000000000000000  0.9037146887349883
 
  0.00000000E+00  0.00000000E+00  0.00000000E+00
  0.00000000E+00  0.00000000E+00  0.00000000E+00
  0.00000000E+00  0.00000000E+00  0.00000000E+00
  0.00000000E+00  0.00000000E+00  0.00000000E+00
  0.00000000E+00  0.00000000E+00  0.00000000E+00
  0.00000000E+00  0.00000000E+00  0.00000000E+00
  0.00000000E+00  0.00000000E+00  0.00000000E+00
  0.00000000E+00  0.00000000E+00  0.00000000E+00
  0.00000000E+00  0.00000000E+00  0.00000000E+00
  0.00000000E+00  0.00000000E+00  0.00000000E+00
  0.00000000E+00  0.00000000E+00  0.00000000E+00
  0.00000000E+00  0.00000000E+00  0.00000000E+00
  0.00000000E+00  0.00000000E+00  0.00000000E+00
  0.00000000E+00  0.00000000E+00  0.00000000E+00
  0.00000000E+00  0.00000000E+00  0.00000000E+00
  0.00000000E+00  0.00000000E+00  0.00000000E+00
