#51-P21/m2/m2/a                         
   1.00000000121885     
     3.9552100171745703    0.0000000000000000    0.0000000000000000
     0.0000000000000000    3.9631363000796345    0.0000000000000000
    -0.0000000000000000    0.0000000000000000    7.9277714803483788
   Fe   Sb
     6     2
Direct
  0.2500000000000000  0.0000000000000000  0.5929099758798139
  0.7500000000000000  0.0000000000000000  0.4070900241201862
  0.2500000000000000  0.5000000000000000  0.4072794083194857
  0.7500000000000000  0.5000000000000000  0.5927205916805142
  0.2500000000000000  0.5000000000000000  0.7736041895739265
  0.7500000000000000  0.5000000000000000  0.2263958104260735
  0.2500000000000000  0.0000000000000000  0.1749885931294066
  0.7500000000000000  0.0000000000000000  0.8250114068705933
 
  0.00000000E+00  0.00000000E+00  0.00000000E+00
  0.00000000E+00  0.00000000E+00  0.00000000E+00
  0.00000000E+00  0.00000000E+00  0.00000000E+00
  0.00000000E+00  0.00000000E+00  0.00000000E+00
  0.00000000E+00  0.00000000E+00  0.00000000E+00
  0.00000000E+00  0.00000000E+00  0.00000000E+00
  0.00000000E+00  0.00000000E+00  0.00000000E+00
  0.00000000E+00  0.00000000E+00  0.00000000E+00
