#194-P63/m2/m2/c                        
  0.999999999165001     
     5.4872457165201407   -0.0000000000000000    0.0000000000000000
    -2.7436228582600704    4.7520941873137863   -0.0000000000000000
     0.0000000000000000   -0.0000000000000000    4.3335114093785263
   Fe   Sb
     6     2
Direct
  0.1513478508807048  0.3026857017614135  0.2500000000000000
  0.8486621491192913  0.1513478508807048  0.7500000000000000
  0.6973142982385864  0.8486621491192913  0.2500000000000000
  0.8486521491192952  0.6973142982385864  0.7500000000000000
  0.1513378508807087  0.8486521491192952  0.2500000000000000
  0.3026857017614135  0.1513378508807087  0.7500000000000000
  0.3333299999999966  0.6666700000000034  0.7500000000000000
  0.6666600000000003  0.3333299999999966  0.2500000000000000
 
  0.00000000E+00  0.00000000E+00  0.00000000E+00
  0.00000000E+00  0.00000000E+00  0.00000000E+00
  0.00000000E+00  0.00000000E+00  0.00000000E+00
  0.00000000E+00  0.00000000E+00  0.00000000E+00
  0.00000000E+00  0.00000000E+00  0.00000000E+00
  0.00000000E+00  0.00000000E+00  0.00000000E+00
  0.00000000E+00  0.00000000E+00  0.00000000E+00
  0.00000000E+00  0.00000000E+00  0.00000000E+00
