#223-P42/m-32/n                         
   1.00000000044882     
     4.7993104842517296    0.0000000000000000   -0.0000000000000000
     0.0000000000000000    4.7993104842517296   -0.0000000000000000
    -0.0000000000000000    0.0000000000000000    4.7993104842517296
   Fe   Sb
     6     2
Direct
  0.2500000000000000  0.5000000000000000 -0.0000000000000000
  0.7500000000000000  0.5000000000000000 -0.0000000000000000
  0.5000000000000000  0.0000000000000000  0.2500000000000000
  0.5000000000000000  0.0000000000000000  0.7500000000000000
  0.0000000000000000  0.2500000000000000  0.5000000000000000
 -0.0000000000000000  0.7500000000000000  0.5000000000000000
 -0.0000000000000000  0.0000000000000000 -0.0000000000000000
  0.5000000000000000  0.5000000000000000  0.5000000000000000
 
  0.00000000E+00  0.00000000E+00  0.00000000E+00
  0.00000000E+00  0.00000000E+00  0.00000000E+00
  0.00000000E+00  0.00000000E+00  0.00000000E+00
  0.00000000E+00  0.00000000E+00  0.00000000E+00
  0.00000000E+00  0.00000000E+00  0.00000000E+00
  0.00000000E+00  0.00000000E+00  0.00000000E+00
  0.00000000E+00  0.00000000E+00  0.00000000E+00
  0.00000000E+00  0.00000000E+00  0.00000000E+00
