#12-C12/m1                              
   1.00000000036369     
     8.8447049040329961    0.0000000000000000   -0.0051486950619380
     0.0000000000000000    4.0072705478341639    0.0000000000000000
    -4.0716669498667457    0.0000000000000000    6.5515672105958176
   Fe   Sb
    12     4
Direct
  0.6555420086701763  0.0000000000000000  0.5479670440160725
  0.3444579913298238  0.0000000000000000  0.4520329559839274
  0.1555420086701762  0.5000000000000000  0.5479670440160725
  0.8444579913298237  0.5000000000000000  0.4520329559839274
  0.3233064620538619 -0.0000000000000000  0.1196674795719964
  0.6766935379461451 -0.0000000000000000  0.8803325204280033
  0.8233064620538549  0.5000000000000000  0.1196674795719964
  0.1766935379461381  0.5000000000000000  0.8803325204280033
  0.0107646286927277 -0.0000000000000000  0.3370416483670905
  0.9892353713072722  0.0000000000000000  0.6629583516329095
  0.5107646286927278  0.5000000000000000  0.3370416483670905
  0.4892353713072722  0.5000000000000000  0.6629583516329095
  0.3349217189578039  0.0000000000000000  0.7852873309726635
  0.6650782810421962  0.0000000000000000  0.2147126690273365
  0.8349217189578038  0.5000000000000000  0.7852873309726635
  0.1650782810421960  0.5000000000000000  0.2147126690273365
 
  0.00000000E+00  0.00000000E+00  0.00000000E+00
  0.00000000E+00  0.00000000E+00  0.00000000E+00
  0.00000000E+00  0.00000000E+00  0.00000000E+00
  0.00000000E+00  0.00000000E+00  0.00000000E+00
  0.00000000E+00  0.00000000E+00  0.00000000E+00
  0.00000000E+00  0.00000000E+00  0.00000000E+00
  0.00000000E+00  0.00000000E+00  0.00000000E+00
  0.00000000E+00  0.00000000E+00  0.00000000E+00
  0.00000000E+00  0.00000000E+00  0.00000000E+00
  0.00000000E+00  0.00000000E+00  0.00000000E+00
  0.00000000E+00  0.00000000E+00  0.00000000E+00
  0.00000000E+00  0.00000000E+00  0.00000000E+00
  0.00000000E+00  0.00000000E+00  0.00000000E+00
  0.00000000E+00  0.00000000E+00  0.00000000E+00
  0.00000000E+00  0.00000000E+00  0.00000000E+00
  0.00000000E+00  0.00000000E+00  0.00000000E+00
