#71-I2/m2/m2/m                          
   1.00000000099490     
     3.8158590441880773   -0.0000000000000000    0.0000000000000000
     0.0000000000000000    3.8165925675760572    0.0000000000000000
     0.0000000000000000    0.0000000000000000    7.5137818822955644
   Fe   Sb
     6     2
Direct
  0.5000000000000000  0.0000000000000000  0.7500101527669013
  0.5000000000000000 -0.0000000000000000  0.2499898472330987
  0.0000000000000000  0.5000000000000000  0.2500101527669014
  0.0000000000000000  0.5000000000000000  0.7499898472330987
  0.5000000000000000  0.5000000000000000 -0.0000000000000000
 -0.0000000000000000 -0.0000000000000000  0.5000000000000000
 -0.0000000000000000 -0.0000000000000000 -0.0000000000000000
  0.5000000000000000  0.5000000000000000  0.5000000000000000
 
  0.00000000E+00  0.00000000E+00  0.00000000E+00
  0.00000000E+00  0.00000000E+00  0.00000000E+00
  0.00000000E+00  0.00000000E+00  0.00000000E+00
  0.00000000E+00  0.00000000E+00  0.00000000E+00
  0.00000000E+00  0.00000000E+00  0.00000000E+00
  0.00000000E+00  0.00000000E+00  0.00000000E+00
  0.00000000E+00  0.00000000E+00  0.00000000E+00
  0.00000000E+00  0.00000000E+00  0.00000000E+00
