#71-I2/m2/m2/m                          
  0.999999999708582     
     7.5119870761672614    0.0000000000000000    0.0000000000000000
     0.0000000000000000    3.8081310137015034    0.0000000000000000
     0.0000000000000000   -0.0000000000000000    3.8223895476709306
   Fe   Sb
     6     2
Direct
  0.7495130476352694  0.0000000000000000 -0.0000000000000000
  0.2504869523647304 -0.0000000000000000  0.0000000000000000
  0.2495130476352695  0.5000000000000000  0.5000000000000000
  0.7504869523647306  0.5000000000000000  0.5000000000000000
  0.5000000000000000  0.5000000000000000 -0.0000000000000000
 -0.0000000000000000  0.0000000000000000  0.5000000000000000
  0.5000000000000000  0.0000000000000000  0.5000000000000000
 -0.0000000000000000  0.5000000000000000 -0.0000000000000000
 
  0.00000000E+00  0.00000000E+00  0.00000000E+00
  0.00000000E+00  0.00000000E+00  0.00000000E+00
  0.00000000E+00  0.00000000E+00  0.00000000E+00
  0.00000000E+00  0.00000000E+00  0.00000000E+00
  0.00000000E+00  0.00000000E+00  0.00000000E+00
  0.00000000E+00  0.00000000E+00  0.00000000E+00
  0.00000000E+00  0.00000000E+00  0.00000000E+00
  0.00000000E+00  0.00000000E+00  0.00000000E+00
