#12-C12/m1                              
   1.00000000064417     
     7.2418460239832028    0.0000000000000000   -0.0038725729611691
     0.0000000000000000    4.2164367933372349   -0.0000000000000000
    -2.2519451610059376    0.0000000000000000    7.2238703323945570
   Fe   Sb
    12     4
Direct
  0.4471221798385447 -0.0000000000000000  0.3301619588755795
  0.5528778201614555  0.0000000000000000  0.6698380411244205
  0.9471221798385445  0.5000000000000000  0.3301619588755795
  0.0528778201614554  0.5000000000000000  0.6698380411244205
  0.1905005307155603  0.0000000000000000  0.5739213878433058
  0.8094994692844398 -0.0000000000000000  0.4260786121566940
  0.6905005307155602  0.5000000000000000  0.5739213878433058
  0.3094994692844397  0.5000000000000000  0.4260786121566940
  0.6879319177473248 -0.0000000000000000  0.0524357783079051
  0.3120680822526752  0.0000000000000000  0.9475642216920949
  0.1879319177473248  0.5000000000000000  0.0524357783079051
  0.8120680822526752  0.5000000000000000  0.9475642216920949
  0.0760065016972936 -0.0000000000000000  0.2139927984693596
  0.9239934983027064  0.0000000000000000  0.7860072015306403
  0.5760065016972936  0.5000000000000000  0.2139927984693596
  0.4239934983027064  0.5000000000000000  0.7860072015306403
 
  0.00000000E+00  0.00000000E+00  0.00000000E+00
  0.00000000E+00  0.00000000E+00  0.00000000E+00
  0.00000000E+00  0.00000000E+00  0.00000000E+00
  0.00000000E+00  0.00000000E+00  0.00000000E+00
  0.00000000E+00  0.00000000E+00  0.00000000E+00
  0.00000000E+00  0.00000000E+00  0.00000000E+00
  0.00000000E+00  0.00000000E+00  0.00000000E+00
  0.00000000E+00  0.00000000E+00  0.00000000E+00
  0.00000000E+00  0.00000000E+00  0.00000000E+00
  0.00000000E+00  0.00000000E+00  0.00000000E+00
  0.00000000E+00  0.00000000E+00  0.00000000E+00
  0.00000000E+00  0.00000000E+00  0.00000000E+00
  0.00000000E+00  0.00000000E+00  0.00000000E+00
  0.00000000E+00  0.00000000E+00  0.00000000E+00
  0.00000000E+00  0.00000000E+00  0.00000000E+00
  0.00000000E+00  0.00000000E+00  0.00000000E+00
