#8-C1m1                                 
   1.00000000036217     
     8.4226638095691317    0.0000000000000000   -0.0209986560583986
     0.0000000000000000    4.6899524886267709    0.0000000000000000
    -4.2007782904796063    0.0000000000000000    6.0472294699619393
   Fe   Nb
    12     6
Direct
  0.9367271085549973  0.2533566145729083  0.5034903734723670
  0.9367271085549973  0.7466433854270917  0.5034903734723670
  0.4367271085549973  0.7533566145729083  0.5034903734723670
  0.4367271085549973  0.2466433854270917  0.5034903734723670
  0.6991978335267603  0.0000000000000000  0.8566961775458637
  0.1991978335267603  0.5000000000000000  0.8566961775458637
  0.3699996561685381  0.0000000000000000  0.1679377231704322
  0.8699996561685381  0.5000000000000000  0.1679377231704322
  0.6911927305496377  0.0000000000000000  0.5126454842179768
  0.1911927305496377  0.5000000000000000  0.5126454842179768
  0.6779561504089671  0.0000000000000000  0.1635659213978755
  0.1779561504089671  0.5000000000000000  0.1635659213978755
  0.0567436398183077  0.0000000000000000  0.2617722401704370
  0.5567436398183077  0.5000000000000000  0.2617722401704370
  0.3139562535021057  0.0000000000000000  0.7572281701567789
  0.8139562535021057  0.5000000000000000  0.7572281701567789
  0.0395695189156839  0.0000000000000000  0.8713835363959035
  0.5395695189156839  0.5000000000000000  0.8713835363959035
 
  0.00000000E+00  0.00000000E+00  0.00000000E+00
  0.00000000E+00  0.00000000E+00  0.00000000E+00
  0.00000000E+00  0.00000000E+00  0.00000000E+00
  0.00000000E+00  0.00000000E+00  0.00000000E+00
  0.00000000E+00  0.00000000E+00  0.00000000E+00
  0.00000000E+00  0.00000000E+00  0.00000000E+00
  0.00000000E+00  0.00000000E+00  0.00000000E+00
  0.00000000E+00  0.00000000E+00  0.00000000E+00
  0.00000000E+00  0.00000000E+00  0.00000000E+00
  0.00000000E+00  0.00000000E+00  0.00000000E+00
  0.00000000E+00  0.00000000E+00  0.00000000E+00
  0.00000000E+00  0.00000000E+00  0.00000000E+00
  0.00000000E+00  0.00000000E+00  0.00000000E+00
  0.00000000E+00  0.00000000E+00  0.00000000E+00
  0.00000000E+00  0.00000000E+00  0.00000000E+00
  0.00000000E+00  0.00000000E+00  0.00000000E+00
  0.00000000E+00  0.00000000E+00  0.00000000E+00
  0.00000000E+00  0.00000000E+00  0.00000000E+00
