#123-P4/m2/m2/m                         
  0.999999999750702     
     3.0156326554095143    0.0000000000000000    0.0000000000000000
     0.0000000000000000    3.0156326554095143    0.0000000000000000
     0.0000000000000000    0.0000000000000000    8.8427171472679511
   Fe   Nb
     4     2
Direct
  0.0000000000000000  0.0000000000000000  0.5000000000000000
  0.0000000000000000  0.0000000000000000  0.1539160612644821
  0.0000000000000000  0.0000000000000000  0.8460839387355179
  0.5000000000000000  0.5000000000000000  0.0000000000000000
  0.5000000000000000  0.5000000000000000  0.6771368227194472
  0.5000000000000000  0.5000000000000000  0.3228631772805528
 
  0.00000000E+00  0.00000000E+00  0.00000000E+00
  0.00000000E+00  0.00000000E+00  0.00000000E+00
  0.00000000E+00  0.00000000E+00  0.00000000E+00
  0.00000000E+00  0.00000000E+00  0.00000000E+00
  0.00000000E+00  0.00000000E+00  0.00000000E+00
  0.00000000E+00  0.00000000E+00  0.00000000E+00
