#12-C12/m1                              
   1.00000000030213     
    13.7682110145495482    0.0000000000000000    0.0155012873027736
     0.0000000000000000    4.8143118075618476    0.0000000000000000
    -0.6869163973137395    0.0000000000000000    4.7635681058552599
   Fe   Nb
    16     8
Direct
  0.1198413216182175  0.2560154294037957  0.2907157806528957
  0.8801586783817825  0.2560154294037957  0.7092842193471114
  0.8801586783817825  0.7439845705962043  0.7092842193471114
  0.1198413216182175  0.7439845705962043  0.2907157806528957
  0.6198413216182175  0.7560154294037957  0.2907157806528957
  0.3801586783817825  0.7560154294037957  0.7092842193471114
  0.3801586783817825  0.2439845705962043  0.7092842193471114
  0.6198413216182175  0.2439845705962043  0.2907157806528957
  0.0000000000000000  0.0000000000000000  0.5000000000000000
  0.5000000000000000  0.5000000000000000  0.5000000000000000
  0.0000000000000000  0.0000000000000000  0.0000000000000000
  0.5000000000000000  0.5000000000000000  0.0000000000000000
  0.2661264044377631  0.0000000000000000  0.3853571338834669
  0.7338735955622369  0.0000000000000000  0.6146428661165331
  0.7661264044377631  0.5000000000000000  0.3853571338834669
  0.2338735955622369  0.5000000000000000  0.6146428661165331
  0.1972941092394720  0.0000000000000000  0.8474130280922836
  0.8027058907605280  0.0000000000000000  0.1525869719077164
  0.6972941092394720  0.5000000000000000  0.8474130280922836
  0.3027058907605280  0.5000000000000000  0.1525869719077164
  0.5658519078403970  0.0000000000000000  0.7820444171254479
  0.4341480921596030  0.0000000000000000  0.2179555828745592
  0.0658519078403970  0.5000000000000000  0.7820444171254479
  0.9341480921596030  0.5000000000000000  0.2179555828745592
 
  0.00000000E+00  0.00000000E+00  0.00000000E+00
  0.00000000E+00  0.00000000E+00  0.00000000E+00
  0.00000000E+00  0.00000000E+00  0.00000000E+00
  0.00000000E+00  0.00000000E+00  0.00000000E+00
  0.00000000E+00  0.00000000E+00  0.00000000E+00
  0.00000000E+00  0.00000000E+00  0.00000000E+00
  0.00000000E+00  0.00000000E+00  0.00000000E+00
  0.00000000E+00  0.00000000E+00  0.00000000E+00
  0.00000000E+00  0.00000000E+00  0.00000000E+00
  0.00000000E+00  0.00000000E+00  0.00000000E+00
  0.00000000E+00  0.00000000E+00  0.00000000E+00
  0.00000000E+00  0.00000000E+00  0.00000000E+00
  0.00000000E+00  0.00000000E+00  0.00000000E+00
  0.00000000E+00  0.00000000E+00  0.00000000E+00
  0.00000000E+00  0.00000000E+00  0.00000000E+00
  0.00000000E+00  0.00000000E+00  0.00000000E+00
  0.00000000E+00  0.00000000E+00  0.00000000E+00
  0.00000000E+00  0.00000000E+00  0.00000000E+00
  0.00000000E+00  0.00000000E+00  0.00000000E+00
  0.00000000E+00  0.00000000E+00  0.00000000E+00
  0.00000000E+00  0.00000000E+00  0.00000000E+00
  0.00000000E+00  0.00000000E+00  0.00000000E+00
  0.00000000E+00  0.00000000E+00  0.00000000E+00
  0.00000000E+00  0.00000000E+00  0.00000000E+00
