#63-C2/m2/c21/m                         
   1.00000000060505     
     3.0792057071583789    0.0000000000000000    0.0000000000000000
     0.0000000000000000   12.6202763276080638    0.0000000000000000
     0.0000000000000000    0.0000000000000000    4.1420572670954776
   Fe   Nb
     8     4
Direct
  0.0000000000000000  0.7441691600324418  0.2500000000000000
  0.0000000000000000  0.2558308399675582  0.7500000000000000
  0.5000000000000000  0.2441691600324418  0.2500000000000000
  0.5000000000000000  0.7558308399675582  0.7500000000000000
  0.0000000000000000  0.0818868501774048  0.2500000000000000
  0.0000000000000000  0.9181131498225952  0.7500000000000000
  0.5000000000000000  0.5818868501774048  0.2500000000000000
  0.5000000000000000  0.4181131498225952  0.7500000000000000
  0.0000000000000000  0.4090753194793635  0.2500000000000000
  0.0000000000000000  0.5909246805206365  0.7500000000000000
  0.5000000000000000  0.9090753194793635  0.2500000000000000
  0.5000000000000000  0.0909246805206365  0.7500000000000000
 
  0.00000000E+00  0.00000000E+00  0.00000000E+00
  0.00000000E+00  0.00000000E+00  0.00000000E+00
  0.00000000E+00  0.00000000E+00  0.00000000E+00
  0.00000000E+00  0.00000000E+00  0.00000000E+00
  0.00000000E+00  0.00000000E+00  0.00000000E+00
  0.00000000E+00  0.00000000E+00  0.00000000E+00
  0.00000000E+00  0.00000000E+00  0.00000000E+00
  0.00000000E+00  0.00000000E+00  0.00000000E+00
  0.00000000E+00  0.00000000E+00  0.00000000E+00
  0.00000000E+00  0.00000000E+00  0.00000000E+00
  0.00000000E+00  0.00000000E+00  0.00000000E+00
  0.00000000E+00  0.00000000E+00  0.00000000E+00
