#160-R3m(hexagonalaxes)                 
   1.00000000021651     
     4.6313968385033855    0.0000000000000000    0.0000000000000000
    -2.3156984192516927    4.0109073171508696    0.0000000000000000
     0.0000000000000000    0.0000000000000000   19.2561121175418499
   Fe   Nb
    18     9
Direct
  0.1662672015844819  0.8337327984155181  0.0475728163260314
  0.1662672015844819  0.3325344031689426  0.0475728163260314
  0.6674655968310574  0.8337327984155181  0.0475728163260314
  0.4995972015844785  0.5004027984155215  0.7142428163260348
  0.4995972015844785  0.9992044031689460  0.7142428163260348
  0.0007955968310540  0.5004027984155215  0.7142428163260348
  0.8329372015844783  0.1670627984155217  0.3809028163260351
  0.8329372015844783  0.6658644031689462  0.3809028163260351
  0.3341355968310538  0.1670627984155217  0.3809028163260351
  0.0000000000000000  0.0000000000000000  0.2768774920788033
  0.3333299999999966  0.6666700000000034  0.9435474920788067
  0.6666700000000034  0.3333299999999966  0.6102074920788070
  0.0000000000000000  0.0000000000000000  0.1595076640687836
  0.3333299999999966  0.6666700000000034  0.8261776640687870
  0.6666700000000034  0.3333299999999966  0.4928376640687873
  0.0000000000000000  0.0000000000000000  0.6476884160499523
  0.3333299999999966  0.6666700000000034  0.3143584160499557
  0.6666700000000034  0.3333299999999966  0.9810184160499560
  0.0000000000000000  0.0000000000000000  0.5149597890162383
  0.3333299999999966  0.6666700000000034  0.1816297890162417
  0.6666700000000034  0.3333299999999966  0.8482897890162420
  0.0000000000000000  0.0000000000000000  0.9262903430712726
  0.3333299999999966  0.6666700000000034  0.5929603430712760
  0.6666700000000034  0.3333299999999966  0.2596203430712691
  0.0000000000000000  0.0000000000000000  0.7785278467368499
  0.3333299999999966  0.6666700000000034  0.4451978467368463
  0.6666700000000034  0.3333299999999966  0.1118578467368394
 
  0.00000000E+00  0.00000000E+00  0.00000000E+00
  0.00000000E+00  0.00000000E+00  0.00000000E+00
  0.00000000E+00  0.00000000E+00  0.00000000E+00
  0.00000000E+00  0.00000000E+00  0.00000000E+00
  0.00000000E+00  0.00000000E+00  0.00000000E+00
  0.00000000E+00  0.00000000E+00  0.00000000E+00
  0.00000000E+00  0.00000000E+00  0.00000000E+00
  0.00000000E+00  0.00000000E+00  0.00000000E+00
  0.00000000E+00  0.00000000E+00  0.00000000E+00
  0.00000000E+00  0.00000000E+00  0.00000000E+00
  0.00000000E+00  0.00000000E+00  0.00000000E+00
  0.00000000E+00  0.00000000E+00  0.00000000E+00
  0.00000000E+00  0.00000000E+00  0.00000000E+00
  0.00000000E+00  0.00000000E+00  0.00000000E+00
  0.00000000E+00  0.00000000E+00  0.00000000E+00
  0.00000000E+00  0.00000000E+00  0.00000000E+00
  0.00000000E+00  0.00000000E+00  0.00000000E+00
  0.00000000E+00  0.00000000E+00  0.00000000E+00
  0.00000000E+00  0.00000000E+00  0.00000000E+00
  0.00000000E+00  0.00000000E+00  0.00000000E+00
  0.00000000E+00  0.00000000E+00  0.00000000E+00
  0.00000000E+00  0.00000000E+00  0.00000000E+00
  0.00000000E+00  0.00000000E+00  0.00000000E+00
  0.00000000E+00  0.00000000E+00  0.00000000E+00
  0.00000000E+00  0.00000000E+00  0.00000000E+00
  0.00000000E+00  0.00000000E+00  0.00000000E+00
  0.00000000E+00  0.00000000E+00  0.00000000E+00
