#96-P43212                              
  0.999999999640645     
     4.7978938849694241    0.0000000000000000    0.0000000000000000
     0.0000000000000000    4.7978938849694241    0.0000000000000000
     0.0000000000000000    0.0000000000000000    6.7819363195102573
   Fe   Nb
     8     4
Direct
  0.0007236253393401  0.2499986013538944  0.6255216030813671
  0.5007236253393401  0.2500013986461056  0.6244783969186329
  0.4992763746606599  0.7499986013538944  0.1244783969186329
  0.9992763746606599  0.7500013986461056  0.1255216030813671
  0.7500013986461056  0.9992763746606599  0.8744783969186329
  0.2500013986461056  0.5007236253393401  0.3755216030813671
  0.7499986013538944  0.4992763746606599  0.8755216030813671
  0.2499986013538944  0.0007236253393401  0.3744783969186329
  0.2518769272689170  0.2518769272689170  0.0000000000000000
  0.7518769272689170  0.2481230727310830  0.2500000000000000
  0.2481230727310830  0.7518769272689170  0.7500000000000000
  0.7481230727310830  0.7481230727310830  0.5000000000000000
 
  0.00000000E+00  0.00000000E+00  0.00000000E+00
  0.00000000E+00  0.00000000E+00  0.00000000E+00
  0.00000000E+00  0.00000000E+00  0.00000000E+00
  0.00000000E+00  0.00000000E+00  0.00000000E+00
  0.00000000E+00  0.00000000E+00  0.00000000E+00
  0.00000000E+00  0.00000000E+00  0.00000000E+00
  0.00000000E+00  0.00000000E+00  0.00000000E+00
  0.00000000E+00  0.00000000E+00  0.00000000E+00
  0.00000000E+00  0.00000000E+00  0.00000000E+00
  0.00000000E+00  0.00000000E+00  0.00000000E+00
  0.00000000E+00  0.00000000E+00  0.00000000E+00
  0.00000000E+00  0.00000000E+00  0.00000000E+00
