#12-C12/m1                              
   1.00000000015841     
     8.7380741609173249    0.0000000000000000   -0.0072073353703805
     0.0000000000000000    4.3176583769369490    0.0000000000000000
    -2.7812720868915037    0.0000000000000000    4.2828921320130124
   Fe   Nb
     8     4
Direct
  0.6569198397439564  0.0000000000000000  0.2336434846683417
  0.3430801602560436  0.0000000000000000  0.7663565153316583
  0.1569198397439564  0.5000000000000000  0.2336434846683417
  0.8430801602560436  0.5000000000000000  0.7663565153316583
  0.9962268196951953  0.0000000000000000  0.7433205132741207
  0.0037731803048047  0.0000000000000000  0.2566794867258793
  0.4962268196951953  0.5000000000000000  0.7433205132741207
  0.5037731803048047  0.5000000000000000  0.2566794867258793
  0.3227227911670525  0.0000000000000000  0.2508944919178262
  0.6772772088329404  0.0000000000000000  0.7491055080821738
  0.8227227911670596  0.5000000000000000  0.2508944919178262
  0.1772772088329475  0.5000000000000000  0.7491055080821738
 
  0.00000000E+00  0.00000000E+00  0.00000000E+00
  0.00000000E+00  0.00000000E+00  0.00000000E+00
  0.00000000E+00  0.00000000E+00  0.00000000E+00
  0.00000000E+00  0.00000000E+00  0.00000000E+00
  0.00000000E+00  0.00000000E+00  0.00000000E+00
  0.00000000E+00  0.00000000E+00  0.00000000E+00
  0.00000000E+00  0.00000000E+00  0.00000000E+00
  0.00000000E+00  0.00000000E+00  0.00000000E+00
  0.00000000E+00  0.00000000E+00  0.00000000E+00
  0.00000000E+00  0.00000000E+00  0.00000000E+00
  0.00000000E+00  0.00000000E+00  0.00000000E+00
  0.00000000E+00  0.00000000E+00  0.00000000E+00
