#12-C12/m1                              
  0.999999999662827     
     4.6761183518722769    0.0000000000000000    0.0087839401804108
     0.0000000000000000   12.0203612693139146    0.0000000000000000
    -2.3077246259650646    0.0000000000000000    4.2923384420438255
   Fe   Nb
    12     6
Direct
  0.3292610899529365  0.3216519052261191  0.1808574077244245
  0.6707389100470635  0.3216519052261191  0.8191425922755755
  0.6707389100470635  0.6783480947738809  0.8191425922755755
  0.3292610899529365  0.6783480947738809  0.1808574077244245
  0.8292610899529365  0.8216519052261191  0.1808574077244245
  0.1707389100470635  0.8216519052261191  0.8191425922755755
  0.1707389100470635  0.1783480947738809  0.8191425922755755
  0.8292610899529365  0.1783480947738809  0.1808574077244245
  0.0000000000000000  0.5000000000000000  0.0000000000000000
  0.5000000000000000  0.0000000000000000  0.0000000000000000
  0.0000000000000000  0.0000000000000000  0.5000000000000000
  0.5000000000000000  0.5000000000000000  0.5000000000000000
  0.0000000000000000  0.3587553991038988  0.5000000000000000
  0.0000000000000000  0.6412446008961012  0.5000000000000000
  0.5000000000000000  0.8587553991038988  0.5000000000000000
  0.5000000000000000  0.1412446008961012  0.5000000000000000
  0.0000000000000000  0.0000000000000000  0.0000000000000000
  0.5000000000000000  0.5000000000000000  0.0000000000000000
 
  0.00000000E+00  0.00000000E+00  0.00000000E+00
  0.00000000E+00  0.00000000E+00  0.00000000E+00
  0.00000000E+00  0.00000000E+00  0.00000000E+00
  0.00000000E+00  0.00000000E+00  0.00000000E+00
  0.00000000E+00  0.00000000E+00  0.00000000E+00
  0.00000000E+00  0.00000000E+00  0.00000000E+00
  0.00000000E+00  0.00000000E+00  0.00000000E+00
  0.00000000E+00  0.00000000E+00  0.00000000E+00
  0.00000000E+00  0.00000000E+00  0.00000000E+00
  0.00000000E+00  0.00000000E+00  0.00000000E+00
  0.00000000E+00  0.00000000E+00  0.00000000E+00
  0.00000000E+00  0.00000000E+00  0.00000000E+00
  0.00000000E+00  0.00000000E+00  0.00000000E+00
  0.00000000E+00  0.00000000E+00  0.00000000E+00
  0.00000000E+00  0.00000000E+00  0.00000000E+00
  0.00000000E+00  0.00000000E+00  0.00000000E+00
  0.00000000E+00  0.00000000E+00  0.00000000E+00
  0.00000000E+00  0.00000000E+00  0.00000000E+00
