#12-C12/m1                              
  0.999999999694136     
    12.6130439665647280    0.0000000000000000   -0.0015248851204396
     0.0000000000000000    3.0753340461484044    0.0000000000000000
    -2.2390627009892379    0.0000000000000000    6.2451538951627352
   Fe   Nb
    12     6
Direct
  0.1705844487812058  0.0000000000000000  0.0098032254289606
  0.8294155512187942  0.0000000000000000  0.9901967745710394
  0.6705844487812058  0.5000000000000000  0.0098032254289606
  0.3294155512187942  0.5000000000000000  0.9901967745710394
  0.7149827978409391  0.0000000000000000  0.3350870634317360
  0.2850172021590609  0.0000000000000000  0.6649129365682640
  0.2149827978409391  0.5000000000000000  0.3350870634317360
  0.7850172021590609  0.5000000000000000  0.6649129365682640
  0.0528063714476446  0.0000000000000000  0.3330961176247982
  0.9471936285523554  0.0000000000000000  0.6669038823752018
  0.5528063714476446  0.5000000000000000  0.3330961176247982
  0.4471936285523554  0.5000000000000000  0.6669038823752018
  0.3806069566075863  0.0000000000000000  0.3326170548341025
  0.6193930433924137  0.0000000000000000  0.6673829451659046
  0.8806069566075863  0.5000000000000000  0.3326170548341025
  0.1193930433924137  0.5000000000000000  0.6673829451659046
  0.0000000000000000  0.5000000000000000  0.0000000000000000
  0.5000000000000000  0.0000000000000000  0.0000000000000000
 
  0.00000000E+00  0.00000000E+00  0.00000000E+00
  0.00000000E+00  0.00000000E+00  0.00000000E+00
  0.00000000E+00  0.00000000E+00  0.00000000E+00
  0.00000000E+00  0.00000000E+00  0.00000000E+00
  0.00000000E+00  0.00000000E+00  0.00000000E+00
  0.00000000E+00  0.00000000E+00  0.00000000E+00
  0.00000000E+00  0.00000000E+00  0.00000000E+00
  0.00000000E+00  0.00000000E+00  0.00000000E+00
  0.00000000E+00  0.00000000E+00  0.00000000E+00
  0.00000000E+00  0.00000000E+00  0.00000000E+00
  0.00000000E+00  0.00000000E+00  0.00000000E+00
  0.00000000E+00  0.00000000E+00  0.00000000E+00
  0.00000000E+00  0.00000000E+00  0.00000000E+00
  0.00000000E+00  0.00000000E+00  0.00000000E+00
  0.00000000E+00  0.00000000E+00  0.00000000E+00
  0.00000000E+00  0.00000000E+00  0.00000000E+00
  0.00000000E+00  0.00000000E+00  0.00000000E+00
  0.00000000E+00  0.00000000E+00  0.00000000E+00
