#63-C2/m2/c21/m                         
   1.00000000055978     
     3.7535012784116435    0.0000000000000000    0.0000000000000000
     0.0000000000000000    8.8829866698856659    0.0000000000000000
     0.0000000000000000    0.0000000000000000    4.8438552970586652
   Fe   Nb
     8     4
Direct
  0.0000000000000000  0.5000000000000000  0.0000000000000000
  0.0000000000000000  0.5000000000000000  0.5000000000000000
  0.5000000000000000  0.0000000000000000  0.0000000000000000
  0.5000000000000000  0.0000000000000000  0.5000000000000000
  0.0000000000000000  0.0864854831929804  0.2500000000000000
  0.0000000000000000  0.9135145168070196  0.7500000000000000
  0.5000000000000000  0.5864854831929804  0.2500000000000000
  0.5000000000000000  0.4135145168070196  0.7500000000000000
  0.0000000000000000  0.7913888807411311  0.2500000000000000
  0.0000000000000000  0.2086111192588689  0.7500000000000000
  0.5000000000000000  0.2913888807411311  0.2500000000000000
  0.5000000000000000  0.7086111192588689  0.7500000000000000
 
  0.00000000E+00  0.00000000E+00  0.00000000E+00
  0.00000000E+00  0.00000000E+00  0.00000000E+00
  0.00000000E+00  0.00000000E+00  0.00000000E+00
  0.00000000E+00  0.00000000E+00  0.00000000E+00
  0.00000000E+00  0.00000000E+00  0.00000000E+00
  0.00000000E+00  0.00000000E+00  0.00000000E+00
  0.00000000E+00  0.00000000E+00  0.00000000E+00
  0.00000000E+00  0.00000000E+00  0.00000000E+00
  0.00000000E+00  0.00000000E+00  0.00000000E+00
  0.00000000E+00  0.00000000E+00  0.00000000E+00
  0.00000000E+00  0.00000000E+00  0.00000000E+00
  0.00000000E+00  0.00000000E+00  0.00000000E+00
