#164-P-32/m1                            
  0.999999999256680     
     4.2052686218164324    0.0000000000000000    0.0000000000000000
    -2.1026343109082162    3.6418694562306055    0.0000000000000000
     0.0000000000000000    0.0000000000000000    7.9094795810573340
   Fe   Nb
     6     3
Direct
  0.3333299999999966  0.6666700000000034  0.1154541892688812
  0.6666600000000003  0.3333299999999966  0.8845458107311188
  0.3333299999999966  0.6666700000000034  0.4396763096567398
  0.6666600000000003  0.3333299999999966  0.5603236903432602
  0.0000000000000000  0.0000000000000000  0.3454918419658313
  0.0000000000000000  0.0000000000000000  0.6545081580341687
  0.3333299999999966  0.6666700000000034  0.7645160564520168
  0.6666600000000003  0.3333299999999966  0.2354839435479832
  0.0000000000000000  0.0000000000000000  0.0000000000000000
 
  0.00000000E+00  0.00000000E+00  0.00000000E+00
  0.00000000E+00  0.00000000E+00  0.00000000E+00
  0.00000000E+00  0.00000000E+00  0.00000000E+00
  0.00000000E+00  0.00000000E+00  0.00000000E+00
  0.00000000E+00  0.00000000E+00  0.00000000E+00
  0.00000000E+00  0.00000000E+00  0.00000000E+00
  0.00000000E+00  0.00000000E+00  0.00000000E+00
  0.00000000E+00  0.00000000E+00  0.00000000E+00
  0.00000000E+00  0.00000000E+00  0.00000000E+00
