#164-P-32/m1                            
  0.999999998327937     
     4.2089575134955624    0.0000000000000000    0.0000000000000000
    -2.1044787567477812    3.6450641301365403    0.0000000000000000
     0.0000000000000000    0.0000000000000000    2.6362131319067150
   Fe   Nb
     2     1
Direct
  0.3333299999999966  0.6666700000000034  0.6561462295071010
  0.6666600000000003  0.3333299999999966  0.3438537704928990
  0.0000000000000000  0.0000000000000000  0.0000000000000000
 
  0.00000000E+00  0.00000000E+00  0.00000000E+00
  0.00000000E+00  0.00000000E+00  0.00000000E+00
  0.00000000E+00  0.00000000E+00  0.00000000E+00
