#139-I4/m2/m2/m                         
  0.999999999873452     
     3.0693687591438334    0.0000000000000000    0.0000000000000000
     0.0000000000000000    3.0693687591438334    0.0000000000000000
     0.0000000000000000    0.0000000000000000    8.6313532940647502
   Fe   Nb
     4     2
Direct
  0.0000000000000000  0.0000000000000000  0.6725158706077039
  0.0000000000000000  0.0000000000000000  0.3274841293922961
  0.5000000000000000  0.5000000000000000  0.1725158706077039
  0.5000000000000000  0.5000000000000000  0.8274841293922961
  0.0000000000000000  0.0000000000000000  0.0000000000000000
  0.5000000000000000  0.5000000000000000  0.5000000000000000
 
  0.00000000E+00  0.00000000E+00  0.00000000E+00
  0.00000000E+00  0.00000000E+00  0.00000000E+00
  0.00000000E+00  0.00000000E+00  0.00000000E+00
  0.00000000E+00  0.00000000E+00  0.00000000E+00
  0.00000000E+00  0.00000000E+00  0.00000000E+00
  0.00000000E+00  0.00000000E+00  0.00000000E+00
