#65-C2/m2/m2/m                          
  0.999999999286034     
    12.5772991177005657    0.0000000000000000    0.0000000000000000
     0.0000000000000000    4.1438422396613408    0.0000000000000000
     0.0000000000000000   -0.0000000000000001    3.0686326164235966
   Fe   Nb
     8     4
Direct
  0.6624576401192783  0.0000000000000000  0.0000000000000000
  0.3375423598807217  0.0000000000000000  0.0000000000000000
  0.1624576401192783  0.5000000000000000  0.0000000000000000
  0.8375423598807217  0.5000000000000000  0.0000000000000000
  0.5000000000000000  0.0000000000000000  0.5000000000000000
  0.0000000000000000  0.5000000000000000  0.5000000000000000
  0.0000000000000000  0.0000000000000000  0.0000000000000000
  0.5000000000000000  0.5000000000000000  0.0000000000000000
  0.1607726148778852  0.0000000000000000  0.5000000000000000
  0.8392273851221148  0.0000000000000000  0.5000000000000000
  0.6607726148778852  0.5000000000000000  0.5000000000000000
  0.3392273851221148  0.5000000000000000  0.5000000000000000
 
  0.00000000E+00  0.00000000E+00  0.00000000E+00
  0.00000000E+00  0.00000000E+00  0.00000000E+00
  0.00000000E+00  0.00000000E+00  0.00000000E+00
  0.00000000E+00  0.00000000E+00  0.00000000E+00
  0.00000000E+00  0.00000000E+00  0.00000000E+00
  0.00000000E+00  0.00000000E+00  0.00000000E+00
  0.00000000E+00  0.00000000E+00  0.00000000E+00
  0.00000000E+00  0.00000000E+00  0.00000000E+00
  0.00000000E+00  0.00000000E+00  0.00000000E+00
  0.00000000E+00  0.00000000E+00  0.00000000E+00
  0.00000000E+00  0.00000000E+00  0.00000000E+00
  0.00000000E+00  0.00000000E+00  0.00000000E+00
