#12-C12/m1                              
  0.999999999829680     
     8.9987196959532287    0.0000000000000000    0.0313711779701955
     0.0000000000000000    4.1516830273111403    0.0000000000000000
    -4.3690605043095552    0.0000000000000000    6.4743721958901128
   Fe   Nb
    12     6
Direct
  0.5108191034978162  0.0000000000000000  0.1758321308020498
  0.4891808965021838  0.0000000000000000  0.8241678691979502
  0.0108191034978162  0.5000000000000000  0.1758321308020498
  0.9891808965021838  0.5000000000000000  0.8241678691979502
  0.1673104159999994  0.0000000000000000  0.7174102683190000
  0.8326895840000006  0.0000000000000000  0.2825897316810000
  0.6673104159999994  0.5000000000000000  0.7174102683190000
  0.3326895840000006  0.5000000000000000  0.2825897316810000
  0.8360865734717464  0.0000000000000000  0.6064629440031482
  0.1639134265282536  0.0000000000000000  0.3935370559968518
  0.3360865734717464  0.5000000000000000  0.6064629440031482
  0.6639134265282536  0.5000000000000000  0.3935370559968518
  0.8311277289226524  0.0000000000000000  0.9406399459220296
  0.1688722710773476  0.0000000000000000  0.0593600540779704
  0.3311277289226524  0.5000000000000000  0.9406399459220296
  0.6688722710773476  0.5000000000000000  0.0593600540779704
  0.0000000000000000  0.5000000000000000  0.5000000000000000
  0.5000000000000000  0.0000000000000000  0.5000000000000000
 
  0.00000000E+00  0.00000000E+00  0.00000000E+00
  0.00000000E+00  0.00000000E+00  0.00000000E+00
  0.00000000E+00  0.00000000E+00  0.00000000E+00
  0.00000000E+00  0.00000000E+00  0.00000000E+00
  0.00000000E+00  0.00000000E+00  0.00000000E+00
  0.00000000E+00  0.00000000E+00  0.00000000E+00
  0.00000000E+00  0.00000000E+00  0.00000000E+00
  0.00000000E+00  0.00000000E+00  0.00000000E+00
  0.00000000E+00  0.00000000E+00  0.00000000E+00
  0.00000000E+00  0.00000000E+00  0.00000000E+00
  0.00000000E+00  0.00000000E+00  0.00000000E+00
  0.00000000E+00  0.00000000E+00  0.00000000E+00
  0.00000000E+00  0.00000000E+00  0.00000000E+00
  0.00000000E+00  0.00000000E+00  0.00000000E+00
  0.00000000E+00  0.00000000E+00  0.00000000E+00
  0.00000000E+00  0.00000000E+00  0.00000000E+00
  0.00000000E+00  0.00000000E+00  0.00000000E+00
  0.00000000E+00  0.00000000E+00  0.00000000E+00
