#63-C2/m2/c21/m                         
  0.999999999352656     
     4.2462205096294916    0.0000000000000000    0.0000000000000000
     0.0000000000000000    8.9317876325292129    0.0000000000000000
     0.0000000000000000    0.0000000000000000    4.2501837819308710
   Fe   Nb
     8     4
Direct
  0.0000000000000000  0.2521679060503672  0.2500000000000000
  0.0000000000000000  0.7478320939496328  0.7500000000000000
  0.5000000000000000  0.7521679060503672  0.2500000000000000
  0.5000000000000000  0.2478320939496328  0.7500000000000000
  0.0000000000000000  0.9174730377643101  0.2500000000000000
  0.0000000000000000  0.0825269622356899  0.7500000000000000
  0.5000000000000000  0.4174730377643101  0.2500000000000000
  0.5000000000000000  0.5825269622356899  0.7500000000000000
  0.0000000000000000  0.5949662177303665  0.2500000000000000
  0.0000000000000000  0.4050337822696335  0.7500000000000000
  0.5000000000000000  0.0949662177303665  0.2500000000000000
  0.5000000000000000  0.9050337822696335  0.7500000000000000
 
  0.00000000E+00  0.00000000E+00  0.00000000E+00
  0.00000000E+00  0.00000000E+00  0.00000000E+00
  0.00000000E+00  0.00000000E+00  0.00000000E+00
  0.00000000E+00  0.00000000E+00  0.00000000E+00
  0.00000000E+00  0.00000000E+00  0.00000000E+00
  0.00000000E+00  0.00000000E+00  0.00000000E+00
  0.00000000E+00  0.00000000E+00  0.00000000E+00
  0.00000000E+00  0.00000000E+00  0.00000000E+00
  0.00000000E+00  0.00000000E+00  0.00000000E+00
  0.00000000E+00  0.00000000E+00  0.00000000E+00
  0.00000000E+00  0.00000000E+00  0.00000000E+00
  0.00000000E+00  0.00000000E+00  0.00000000E+00
