#194-P63/m2/m2/c                        
   1.00000000052574     
     4.7850777261983701    0.0000000000000000    0.0000000000000000
    -2.3925388630991851    4.1439988699708685    0.0000000000000000
     0.0000000000000000    0.0000000000000000    7.8263358451120144
   Fe   Nb
     8     4
Direct
  0.0000000000000000  0.0000000000000000  0.0000000000000000
  0.0000000000000000  0.0000000000000000  0.5000000000000000
  0.1683413611997793  0.3366727223995625  0.2500000000000000
  0.8316686388002168  0.1683413611997793  0.7500000000000000
  0.6633272776004375  0.8316686388002168  0.2500000000000000
  0.8316586388002207  0.6633272776004375  0.7500000000000000
  0.1683313611997832  0.8316586388002207  0.2500000000000000
  0.3366727223995625  0.1683313611997832  0.7500000000000000
  0.3333299999999966  0.6666700000000034  0.5633556883451192
  0.6666600000000003  0.3333299999999966  0.0633556883451192
  0.6666600000000003  0.3333299999999966  0.4366443116548808
  0.3333299999999966  0.6666600000000003  0.9366443116548808
 
  0.00000000E+00  0.00000000E+00  0.00000000E+00
  0.00000000E+00  0.00000000E+00  0.00000000E+00
  0.00000000E+00  0.00000000E+00  0.00000000E+00
  0.00000000E+00  0.00000000E+00  0.00000000E+00
  0.00000000E+00  0.00000000E+00  0.00000000E+00
  0.00000000E+00  0.00000000E+00  0.00000000E+00
  0.00000000E+00  0.00000000E+00  0.00000000E+00
  0.00000000E+00  0.00000000E+00  0.00000000E+00
  0.00000000E+00  0.00000000E+00  0.00000000E+00
  0.00000000E+00  0.00000000E+00  0.00000000E+00
  0.00000000E+00  0.00000000E+00  0.00000000E+00
  0.00000000E+00  0.00000000E+00  0.00000000E+00
