#164-P-32/m1                            
   1.00000000039326     
     4.2357161115581059    0.0000000000000000    0.0000000000000000
    -2.1178580557790530    3.6682377558283603    0.0000000000000000
     0.0000000000000000    0.0000000000000000    5.1361966659508749
   Fe   Nb
     4     2
Direct
  0.3333299999999966  0.6666700000000034  0.6734230284578402
  0.6666600000000003  0.3333299999999966  0.3265769715421598
  0.0000000000000000  0.0000000000000000  0.0000000000000000
  0.0000000000000000  0.0000000000000000  0.5000000000000000
  0.3333299999999966  0.6666700000000034  0.1844865976310430
  0.6666600000000003  0.3333299999999966  0.8155134023689570
 
  0.00000000E+00  0.00000000E+00  0.00000000E+00
  0.00000000E+00  0.00000000E+00  0.00000000E+00
  0.00000000E+00  0.00000000E+00  0.00000000E+00
  0.00000000E+00  0.00000000E+00  0.00000000E+00
  0.00000000E+00  0.00000000E+00  0.00000000E+00
  0.00000000E+00  0.00000000E+00  0.00000000E+00
