#63-C2/m2/c21/m                         
  0.999999999507513     
     4.1164467719144140    0.0000000000000000    0.0000000000000000
     0.0000000000000000   12.6708601277425359    0.0000000000000000
     0.0000000000000000    0.0000000000000000    3.0908661781146347
   Fe   Nb
     8     4
Direct
  0.0000000000000000  0.7448911205634872  0.2500000000000000
  0.0000000000000000  0.2551088794365128  0.7500000000000000
  0.5000000000000000  0.2448911205634872  0.2500000000000000
  0.5000000000000000  0.7551088794365128  0.7500000000000000
  0.0000000000000000  0.4181579377559075  0.2500000000000000
  0.0000000000000000  0.5818420622440925  0.7500000000000000
  0.5000000000000000  0.9181579377559075  0.2500000000000000
  0.5000000000000000  0.0818420622440925  0.7500000000000000
  0.0000000000000000  0.0939863265455188  0.2500000000000000
  0.0000000000000000  0.9060136734544812  0.7500000000000000
  0.5000000000000000  0.5939863265455188  0.2500000000000000
  0.5000000000000000  0.4060136734544812  0.7500000000000000
 
  0.00000000E+00  0.00000000E+00  0.00000000E+00
  0.00000000E+00  0.00000000E+00  0.00000000E+00
  0.00000000E+00  0.00000000E+00  0.00000000E+00
  0.00000000E+00  0.00000000E+00  0.00000000E+00
  0.00000000E+00  0.00000000E+00  0.00000000E+00
  0.00000000E+00  0.00000000E+00  0.00000000E+00
  0.00000000E+00  0.00000000E+00  0.00000000E+00
  0.00000000E+00  0.00000000E+00  0.00000000E+00
  0.00000000E+00  0.00000000E+00  0.00000000E+00
  0.00000000E+00  0.00000000E+00  0.00000000E+00
  0.00000000E+00  0.00000000E+00  0.00000000E+00
  0.00000000E+00  0.00000000E+00  0.00000000E+00
