#123-P4/m2/m2/m                         
   1.00000000145197     
     2.9110897783110832    0.0000000000000000    0.0000000000000000
     0.0000000000000000    2.9110897783110832    0.0000000000000000
     0.0000000000000000    0.0000000000000000    8.9888821536278503
   Fe   Sc
     5     1
Direct
  0.0000000000000000  0.0000000000000000  0.8441688054065253
  0.0000000000000000  0.0000000000000000  0.1558311945934747
  0.5000000000000000  0.5000000000000000  0.2988652817577275
  0.5000000000000000  0.5000000000000000  0.7011347182422725
  0.5000000000000000  0.5000000000000000  0.0000000000000000
  0.0000000000000000  0.0000000000000000  0.5000000000000000
 
  0.00000000E+00  0.00000000E+00  0.00000000E+00
  0.00000000E+00  0.00000000E+00  0.00000000E+00
  0.00000000E+00  0.00000000E+00  0.00000000E+00
  0.00000000E+00  0.00000000E+00  0.00000000E+00
  0.00000000E+00  0.00000000E+00  0.00000000E+00
  0.00000000E+00  0.00000000E+00  0.00000000E+00
