#65-C2/m2/m2/m                          
   1.00000000102035     
     4.1063239724756784    0.0000000000000000    0.0000000000000000
     0.0000000000000000    9.0908732612714473    0.0000000000000000
     0.0000000000000000    0.0000000000000000    4.0783578693854459
   Fe   Sc
    10     2
Direct
  0.0000000000000000  0.3243879050299867  0.0000000000000000
  0.0000000000000000  0.6756120949700133  0.0000000000000000
  0.5000000000000000  0.8243879050299867  0.0000000000000000
  0.5000000000000000  0.1756120949700133  0.0000000000000000
  0.5000000000000000  0.0000000000000000  0.5000000000000000
  0.0000000000000000  0.5000000000000000  0.5000000000000000
  0.0000000000000000  0.8204482660173227  0.5000000000000000
  0.0000000000000000  0.1795517339826773  0.5000000000000000
  0.5000000000000000  0.3204482660173227  0.5000000000000000
  0.5000000000000000  0.6795517339826773  0.5000000000000000
  0.0000000000000000  0.0000000000000000  0.0000000000000000
  0.5000000000000000  0.5000000000000000  0.0000000000000000
 
  0.00000000E+00  0.00000000E+00  0.00000000E+00
  0.00000000E+00  0.00000000E+00  0.00000000E+00
  0.00000000E+00  0.00000000E+00  0.00000000E+00
  0.00000000E+00  0.00000000E+00  0.00000000E+00
  0.00000000E+00  0.00000000E+00  0.00000000E+00
  0.00000000E+00  0.00000000E+00  0.00000000E+00
  0.00000000E+00  0.00000000E+00  0.00000000E+00
  0.00000000E+00  0.00000000E+00  0.00000000E+00
  0.00000000E+00  0.00000000E+00  0.00000000E+00
  0.00000000E+00  0.00000000E+00  0.00000000E+00
  0.00000000E+00  0.00000000E+00  0.00000000E+00
  0.00000000E+00  0.00000000E+00  0.00000000E+00
