#65-C2/m2/m2/m                          
   1.00000000072082     
     4.1160007887698580    0.0000000000000000    0.0000000000000000
     0.0000000000000000   12.3869384416207513    0.0000000000000000
     0.0000000000000000    0.0000000000000000    2.9596952800885670
   Fe   Sc
    10     2
Direct
  0.0000000000000000  0.1801338043574745  0.0000000000000000
  0.0000000000000000  0.8198661956425255  0.0000000000000000
  0.5000000000000000  0.6801338043574745  0.0000000000000000
  0.5000000000000000  0.3198661956425255  0.0000000000000000
  0.0000000000000000  0.3352015661800465  0.5000000000000000
  0.0000000000000000  0.6647984338199535  0.5000000000000000
  0.5000000000000000  0.8352015661800465  0.5000000000000000
  0.5000000000000000  0.1647984338199535  0.5000000000000000
  0.5000000000000000  0.0000000000000000  0.0000000000000000
  0.0000000000000000  0.5000000000000000  0.0000000000000000
  0.0000000000000000  0.0000000000000000  0.5000000000000000
  0.5000000000000000  0.5000000000000000  0.5000000000000000
 
  0.00000000E+00  0.00000000E+00  0.00000000E+00
  0.00000000E+00  0.00000000E+00  0.00000000E+00
  0.00000000E+00  0.00000000E+00  0.00000000E+00
  0.00000000E+00  0.00000000E+00  0.00000000E+00
  0.00000000E+00  0.00000000E+00  0.00000000E+00
  0.00000000E+00  0.00000000E+00  0.00000000E+00
  0.00000000E+00  0.00000000E+00  0.00000000E+00
  0.00000000E+00  0.00000000E+00  0.00000000E+00
  0.00000000E+00  0.00000000E+00  0.00000000E+00
  0.00000000E+00  0.00000000E+00  0.00000000E+00
  0.00000000E+00  0.00000000E+00  0.00000000E+00
  0.00000000E+00  0.00000000E+00  0.00000000E+00
