#12-C12/m1                              
  0.999999999353254     
     8.7776510725799390    0.0000000000000000   -0.0129254342278558
     0.0000000000000000    4.0941085400743074    0.0000000000000000
    -2.7941191273930830    0.0000000000000000    4.2427267439354166
   Fe   Sc
    10     2
Direct
  0.6812954544646317  0.0000000000000000  0.8548825515121905
  0.3187045455353683  0.0000000000000000  0.1451174484878095
  0.1812954544646317  0.5000000000000000  0.8548825515121905
  0.8187045455353683  0.5000000000000000  0.1451174484878095
  0.3450689589125133  0.0000000000000000  0.6786016780624209
  0.6549310410874867  0.0000000000000000  0.3213983219375791
  0.8450689589125133  0.5000000000000000  0.6786016780624209
  0.1549310410874867  0.5000000000000000  0.3213983219375791
  0.0000000000000000  0.0000000000000000  0.0000000000000000
  0.5000000000000000  0.5000000000000000  0.0000000000000000
  0.0000000000000000  0.0000000000000000  0.5000000000000000
  0.5000000000000000  0.5000000000000000  0.5000000000000000
 
  0.00000000E+00  0.00000000E+00  0.00000000E+00
  0.00000000E+00  0.00000000E+00  0.00000000E+00
  0.00000000E+00  0.00000000E+00  0.00000000E+00
  0.00000000E+00  0.00000000E+00  0.00000000E+00
  0.00000000E+00  0.00000000E+00  0.00000000E+00
  0.00000000E+00  0.00000000E+00  0.00000000E+00
  0.00000000E+00  0.00000000E+00  0.00000000E+00
  0.00000000E+00  0.00000000E+00  0.00000000E+00
  0.00000000E+00  0.00000000E+00  0.00000000E+00
  0.00000000E+00  0.00000000E+00  0.00000000E+00
  0.00000000E+00  0.00000000E+00  0.00000000E+00
  0.00000000E+00  0.00000000E+00  0.00000000E+00
