#191-P6/m2/m2/m                         
   1.00000000034099     
     4.1914338022988904    0.0000000000000000    0.0000000000000000
    -2.0957169011494452    3.6298881510716412    0.0000000000000000
     0.0000000000000000    0.0000000000000000    5.2655513786300316
   Fe   Sc
     5     1
Direct
  0.3333299999999966  0.6666700000000034  0.7795770605846570
  0.6666600000000003  0.3333299999999966  0.7795770605846570
  0.6666600000000003  0.3333299999999966  0.2204229394153430
  0.3333299999999966  0.6666600000000003  0.2204229394153430
  0.0000000000000000  0.0000000000000000  0.0000000000000000
  0.0000000000000000  0.0000000000000000  0.5000000000000000
 
  0.00000000E+00  0.00000000E+00  0.00000000E+00
  0.00000000E+00  0.00000000E+00  0.00000000E+00
  0.00000000E+00  0.00000000E+00  0.00000000E+00
  0.00000000E+00  0.00000000E+00  0.00000000E+00
  0.00000000E+00  0.00000000E+00  0.00000000E+00
  0.00000000E+00  0.00000000E+00  0.00000000E+00
