#216-F-43m                              
  0.999999999593612     
     6.7759064818058379    0.0000000000000000    0.0000000000000000
     0.0000000000000000    6.7759064818058379    0.0000000000000000
     0.0000000000000000    0.0000000000000000    6.7759064818058379
   Fe   Sc
    20     4
Direct
  0.6254566012407281  0.6254566012407281  0.6254566012407281
  0.6254566012407281  0.3745433987592719  0.3745433987592719
  0.3745433987592719  0.6254566012407281  0.3745433987592719
  0.3745433987592719  0.3745433987592719  0.6254566012407281
  0.6254566012407281  0.1254566012407281  0.1254566012407281
  0.6254566012407281  0.8745433987592719  0.8745433987592719
  0.3745433987592719  0.1254566012407281  0.8745433987592719
  0.3745433987592719  0.8745433987592719  0.1254566012407281
  0.1254566012407281  0.6254566012407281  0.1254566012407281
  0.1254566012407281  0.3745433987592719  0.8745433987592719
  0.8745433987592719  0.6254566012407281  0.8745433987592719
  0.8745433987592719  0.3745433987592719  0.1254566012407281
  0.1254566012407281  0.1254566012407281  0.6254566012407281
  0.1254566012407281  0.8745433987592719  0.3745433987592719
  0.8745433987592719  0.1254566012407281  0.3745433987592719
  0.8745433987592719  0.8745433987592719  0.6254566012407281
  0.0000000000000000  0.0000000000000000  0.0000000000000000
  0.0000000000000000  0.5000000000000000  0.5000000000000000
  0.5000000000000000  0.0000000000000000  0.5000000000000000
  0.5000000000000000  0.5000000000000000  0.0000000000000000
  0.2500000000000000  0.2500000000000000  0.2500000000000000
  0.2500000000000000  0.7500000000000000  0.7500000000000000
  0.7500000000000000  0.2500000000000000  0.7500000000000000
  0.7500000000000000  0.7500000000000000  0.2500000000000000
 
  0.00000000E+00  0.00000000E+00  0.00000000E+00
  0.00000000E+00  0.00000000E+00  0.00000000E+00
  0.00000000E+00  0.00000000E+00  0.00000000E+00
  0.00000000E+00  0.00000000E+00  0.00000000E+00
  0.00000000E+00  0.00000000E+00  0.00000000E+00
  0.00000000E+00  0.00000000E+00  0.00000000E+00
  0.00000000E+00  0.00000000E+00  0.00000000E+00
  0.00000000E+00  0.00000000E+00  0.00000000E+00
  0.00000000E+00  0.00000000E+00  0.00000000E+00
  0.00000000E+00  0.00000000E+00  0.00000000E+00
  0.00000000E+00  0.00000000E+00  0.00000000E+00
  0.00000000E+00  0.00000000E+00  0.00000000E+00
  0.00000000E+00  0.00000000E+00  0.00000000E+00
  0.00000000E+00  0.00000000E+00  0.00000000E+00
  0.00000000E+00  0.00000000E+00  0.00000000E+00
  0.00000000E+00  0.00000000E+00  0.00000000E+00
  0.00000000E+00  0.00000000E+00  0.00000000E+00
  0.00000000E+00  0.00000000E+00  0.00000000E+00
  0.00000000E+00  0.00000000E+00  0.00000000E+00
  0.00000000E+00  0.00000000E+00  0.00000000E+00
  0.00000000E+00  0.00000000E+00  0.00000000E+00
  0.00000000E+00  0.00000000E+00  0.00000000E+00
  0.00000000E+00  0.00000000E+00  0.00000000E+00
  0.00000000E+00  0.00000000E+00  0.00000000E+00
