#164-P-32/m1                            
  0.999999998131580     
     4.1176563532648283    0.0000000000000000    0.0000000000000000
    -2.0588281766324141    3.5659950059817325    0.0000000000000000
     0.0000000000000000    0.0000000000000000    5.1830922537105488
   Fe   Sc
     5     1
Direct
  0.3333299999999966  0.6666700000000034  0.3374256173062946
  0.6666600000000003  0.3333299999999966  0.6625743826937054
  0.0000000000000000  0.0000000000000000  0.5000000000000000
  0.3333299999999966  0.6666700000000034  0.8030014433685366
  0.6666600000000003  0.3333299999999966  0.1969985566314634
  0.0000000000000000  0.0000000000000000  0.0000000000000000
 
  0.00000000E+00  0.00000000E+00  0.00000000E+00
  0.00000000E+00  0.00000000E+00  0.00000000E+00
  0.00000000E+00  0.00000000E+00  0.00000000E+00
  0.00000000E+00  0.00000000E+00  0.00000000E+00
  0.00000000E+00  0.00000000E+00  0.00000000E+00
  0.00000000E+00  0.00000000E+00  0.00000000E+00
