#129 (P 4/n m m) [origin choice 2]      
   3.97154999513916     
     0.9995896562579535   -0.0000000000000000    0.0000000000000000
    -0.0000000000000000    0.9995896562579535    0.0000000000000000
     0.0000000000000000    0.0000000000000000    1.5213302616107698
   Fe   Sb
     4     2
Direct
  0.7500000000000000  0.2500000000000000  0.0000000000000000
  0.2500000000000000  0.7500000000000000  0.0000000000000000
  0.2500000000000000  0.2500000000000000  0.7568217298389803
  0.7500000000000000  0.7500000000000000  0.2431782701610196
  0.2500000000000000  0.2500000000000000  0.3037267793731325
  0.7500000000000000  0.7500000000000000  0.6962732206268675
 
  0.00000000E+00  0.00000000E+00  0.00000000E+00
  0.00000000E+00  0.00000000E+00  0.00000000E+00
  0.00000000E+00  0.00000000E+00  0.00000000E+00
  0.00000000E+00  0.00000000E+00  0.00000000E+00
  0.00000000E+00  0.00000000E+00  0.00000000E+00
  0.00000000E+00  0.00000000E+00  0.00000000E+00
