#129 (P 4/n m m) [origin choice 2]      
   3.11512999996641     
     0.9915812854027574    0.0000000000000000    0.0000000000000000
     0.0000000000000000    0.9915812854027574    0.0000000000000000
    -0.0000000000000000   -0.0000000000000000    3.3528154677455206
   Fe   Sb
     4     2
Direct
  0.2500000000000000  0.2500000000000000  0.0657178808394397
  0.7500000000000000  0.7500000000000000  0.9342821191605603
  0.2500000000000000  0.2500000000000000  0.8184641949079364
  0.7500000000000000  0.7500000000000000  0.1815358050920636
  0.2500000000000000  0.2500000000000000  0.3420773062726395
  0.7500000000000000  0.7500000000000000  0.6579226937273606
 
  0.00000000E+00  0.00000000E+00  0.00000000E+00
  0.00000000E+00  0.00000000E+00  0.00000000E+00
  0.00000000E+00  0.00000000E+00  0.00000000E+00
  0.00000000E+00  0.00000000E+00  0.00000000E+00
  0.00000000E+00  0.00000000E+00  0.00000000E+00
  0.00000000E+00  0.00000000E+00  0.00000000E+00
