#166 (R -3 m)                           
   4.08340000650069     
     0.0000009561350954    0.5775588800258336   -1.8034797538684118
     0.5001818259017924   -0.2887803961480038   -1.8034797286436108
    -0.5001799136316156   -0.2887803961480119   -1.8034797520573440
   Fe   Sb
     4     2
Direct
  0.1426549011625482  0.1426554511686901  0.1426549011629888
  0.8573451588374497  0.8573474388313075  0.8573451588370091
  0.4489336069253721  0.4489383169570393  0.4489336069276458
  0.5510664530746257  0.5510705730429571  0.5510664530723520
  0.2676508033796320  0.2676506333446095  0.2676508033771167
  0.7323492566203729  0.7323492566553955  0.7323492566228882
 
  0.00000000E+00  0.00000000E+00  0.00000000E+00
  0.00000000E+00  0.00000000E+00  0.00000000E+00
  0.00000000E+00  0.00000000E+00  0.00000000E+00
  0.00000000E+00  0.00000000E+00  0.00000000E+00
  0.00000000E+00  0.00000000E+00  0.00000000E+00
  0.00000000E+00  0.00000000E+00  0.00000000E+00
