#12 (C 2/m) [unique axis c] cell choice 
   7.06562999598595     
     0.0236127178473785    0.0000000000000000   -1.0593274288464276
    -0.4991924794453585    0.2885481981227682   -0.0012561016673109
     0.4991924794453585    0.2885481981227682    0.0012561016673109
   Fe   Sb
     4     2
Direct
  0.1508241086727094  0.0036013808398788  0.9963986191601213
  0.8491758913272833  0.9963986191601213  0.0036013808398788
  0.9315858450447565  0.3318174172149965  0.6681825827850035
  0.0684141549552436  0.6681825827850035  0.3318174172149965
  0.3005607405500100  0.3403822611894552  0.6596177388105449
  0.6994392594499972  0.6596177388105449  0.3403822611894552
 
  0.00000000E+00  0.00000000E+00  0.00000000E+00
  0.00000000E+00  0.00000000E+00  0.00000000E+00
  0.00000000E+00  0.00000000E+00  0.00000000E+00
  0.00000000E+00  0.00000000E+00  0.00000000E+00
  0.00000000E+00  0.00000000E+00  0.00000000E+00
  0.00000000E+00  0.00000000E+00  0.00000000E+00
