#139-I4/m2/m2/m                         
  0.999999998900864     
     3.9467229511613975   -0.0000000000000000    0.0000000000000000
     0.0000000000000000    3.9467229511613975    0.0000000000000000
     0.0000000000000000    0.0000000000000000   12.2036520667510207
   Fe   Sb
     8     4
Direct
  0.0000000000000000  0.5000000000000000  0.0000000000000000
  0.5000000000000000 -0.0000000000000000  0.0000000000000000
  0.5000000000000000 -0.0000000000000000  0.5000000000000000
  0.0000000000000000  0.5000000000000000  0.5000000000000000
  0.0000000000000000  0.0000000000000000  0.8774936380332634
 -0.0000000000000000 -0.0000000000000000  0.1225063619667366
  0.5000000000000000  0.5000000000000000  0.3774936380332634
  0.5000000000000000  0.5000000000000000  0.6225063619667366
 -0.0000000000000000 -0.0000000000000000  0.3448329987918761
  0.0000000000000000  0.0000000000000000  0.6551670012081237
  0.5000000000000000  0.5000000000000000  0.8448329987918763
  0.5000000000000000  0.5000000000000000  0.1551670012081239
 
  0.00000000E+00  0.00000000E+00  0.00000000E+00
  0.00000000E+00  0.00000000E+00  0.00000000E+00
  0.00000000E+00  0.00000000E+00  0.00000000E+00
  0.00000000E+00  0.00000000E+00  0.00000000E+00
  0.00000000E+00  0.00000000E+00  0.00000000E+00
  0.00000000E+00  0.00000000E+00  0.00000000E+00
  0.00000000E+00  0.00000000E+00  0.00000000E+00
  0.00000000E+00  0.00000000E+00  0.00000000E+00
  0.00000000E+00  0.00000000E+00  0.00000000E+00
  0.00000000E+00  0.00000000E+00  0.00000000E+00
  0.00000000E+00  0.00000000E+00  0.00000000E+00
  0.00000000E+00  0.00000000E+00  0.00000000E+00
