#2 (P -1)                               
   4.08037000109950     
     0.9980081865376194    0.0004463330112530   -0.0073232248889920
     0.4979444242419196    0.8650806601368628   -0.0099241427393826
     0.0544314440495294    0.0587561499908044    1.8364524286286581
   Fe   Sb
     4     2
Direct
  0.0024027284742879  0.0083529023641572  0.3493683089844229
  0.9975972715257119  0.9916470976358428  0.6506316910155772
  0.6676876450313881  0.6704857123448890  0.4315546143432001
  0.3323123549686118  0.3295142876551114  0.5684453856567998
  0.3380490212543878  0.3502792042730161  0.1998237683195485
  0.6619509787456122  0.6497207957269840  0.8001762316804514
 
  0.00000000E+00  0.00000000E+00  0.00000000E+00
  0.00000000E+00  0.00000000E+00  0.00000000E+00
  0.00000000E+00  0.00000000E+00  0.00000000E+00
  0.00000000E+00  0.00000000E+00  0.00000000E+00
  0.00000000E+00  0.00000000E+00  0.00000000E+00
  0.00000000E+00  0.00000000E+00  0.00000000E+00
