#166 (R -3 m)                           
   4.25073000057775     
     0.0000051035145700    0.5780786691675507   -2.0610013566264747
     0.5006378492475860   -0.2890434917579390   -2.0609988045468000
    -0.5006282969383872   -0.2890438701327130   -2.0610012924886920
   Fe   Ta
     6     4
Direct
  0.4999956065242746  0.5000160741800933  0.4999956052993274
  0.9999952906922682  0.0000082157129298  0.9999952913992440
  0.6998879447516204  0.6999005682842606  0.6998879740510633
  0.3001019550195382  0.3001165363374709  0.3001019248974360
  0.0981532646448112  0.0981664834147249  0.0981532645599866
  0.9018347740386797  0.9018548139038720  0.9018347755616074
  0.6039506520724137  0.6039700965941313  0.6039506670131025
  0.3960390083373670  0.3960510076709002  0.3960389930460751
  0.2007576228523884  0.2007766148375034  0.2007576246126513
  0.7992300610666404  0.7992473090641161  0.7992300595595082
 
  0.00000000E+00  0.00000000E+00  0.00000000E+00
  0.00000000E+00  0.00000000E+00  0.00000000E+00
  0.00000000E+00  0.00000000E+00  0.00000000E+00
  0.00000000E+00  0.00000000E+00  0.00000000E+00
  0.00000000E+00  0.00000000E+00  0.00000000E+00
  0.00000000E+00  0.00000000E+00  0.00000000E+00
  0.00000000E+00  0.00000000E+00  0.00000000E+00
  0.00000000E+00  0.00000000E+00  0.00000000E+00
  0.00000000E+00  0.00000000E+00  0.00000000E+00
  0.00000000E+00  0.00000000E+00  0.00000000E+00
