#12 (C 2/m) [unique axis c] cell choice 
   12.7981699853293     
     0.1099865563090007    0.0000000000000000   -0.3927580172288128
    -0.5001118704327329    0.1668962815522822   -0.0008292177958899
     0.5001118704327329    0.1668962815522822    0.0008292177958899
   Fe   Ta
     6     4
Direct
  0.3970636595304262  0.6001442807485432  0.3998557192514568
  0.6029363404695738  0.3998557192514568  0.6001442807485432
 -0.0000000000000000 -0.0000000000000000  0.0000000000000000
  0.8013147094394072  0.2009182824721959  0.7990817175278041
  0.1986852905605928  0.7990817175278041  0.2009182824721959
  0.5000000000000000 -0.0000000000000000  0.0000000000000000
  0.8838648844302858  0.5967455856433541  0.4032544143566459
  0.1161351155697142  0.4032544143566459  0.5967455856433541
  0.3014053860726645  0.1958208969236314  0.8041791030763685
  0.6985946139273355  0.8041791030763685  0.1958208969236314
 
  0.00000000E+00  0.00000000E+00  0.00000000E+00
  0.00000000E+00  0.00000000E+00  0.00000000E+00
  0.00000000E+00  0.00000000E+00  0.00000000E+00
  0.00000000E+00  0.00000000E+00  0.00000000E+00
  0.00000000E+00  0.00000000E+00  0.00000000E+00
  0.00000000E+00  0.00000000E+00  0.00000000E+00
  0.00000000E+00  0.00000000E+00  0.00000000E+00
  0.00000000E+00  0.00000000E+00  0.00000000E+00
  0.00000000E+00  0.00000000E+00  0.00000000E+00
  0.00000000E+00  0.00000000E+00  0.00000000E+00
