#139-I4/m2/m2/m                         
  0.999999999346780     
     3.0604106170454326    0.0000000000000000   -0.0000000000000000
     0.0000000000000000    3.0604106170454326   -0.0000000000000000
    -0.0000000000000000    0.0000000000000000   14.7660149112661578
   Fe   Ta
     6     4
Direct
 -0.0000000000000000 -0.0000000000000000  0.7947989093359709
  0.0000000000000000  0.0000000000000000  0.2052010906640291
  0.5000000000000000  0.5000000000000000  0.2947989093359709
  0.5000000000000000  0.5000000000000000  0.7052010906640291
 -0.0000000000000000  0.0000000000000000 -0.0000000000000000
  0.5000000000000000  0.5000000000000000  0.5000000000000000
  0.0000000000000000  0.0000000000000000  0.6038803299028357
 -0.0000000000000000 -0.0000000000000000  0.3961196700971643
  0.5000000000000000  0.5000000000000000  0.1038803299028357
  0.5000000000000000  0.5000000000000000  0.8961196700971643
 
  0.00000000E+00  0.00000000E+00  0.00000000E+00
  0.00000000E+00  0.00000000E+00  0.00000000E+00
  0.00000000E+00  0.00000000E+00  0.00000000E+00
  0.00000000E+00  0.00000000E+00  0.00000000E+00
  0.00000000E+00  0.00000000E+00  0.00000000E+00
  0.00000000E+00  0.00000000E+00  0.00000000E+00
  0.00000000E+00  0.00000000E+00  0.00000000E+00
  0.00000000E+00  0.00000000E+00  0.00000000E+00
  0.00000000E+00  0.00000000E+00  0.00000000E+00
  0.00000000E+00  0.00000000E+00  0.00000000E+00
