#63 (C m c m)                           
   3.05538000294571     
    -0.5005402757603601    3.5110234905105653    0.0000000000000000
    -0.5005402757603601   -3.5110234905105653    0.0000000000000000
     0.0000000000000000    0.0000000000000000    1.3797074943673302
   Fe   Ta
     6     4
Direct
  0.5533501426887434  0.4466498573112566  0.2500000000000000
  0.4466498573112566  0.5533501426887434  0.7500000000000000
  0.3476906245890158  0.6523093754109841  0.2500000000000000
  0.6523093754109841  0.3476906245890158  0.7500000000000000
  0.7538472569025801  0.2461527430974199  0.2500000000000000
  0.2461527430974199  0.7538472569025801  0.7500000000000000
  0.9493028893613209  0.0506971106386791  0.2500000000000000
  0.0506971106386791  0.9493028893613209  0.7500000000000000
  0.1552442001898446  0.8447557998101554  0.2500000000000000
  0.8447557998101554  0.1552442001898446  0.7500000000000000
 
  0.00000000E+00  0.00000000E+00  0.00000000E+00
  0.00000000E+00  0.00000000E+00  0.00000000E+00
  0.00000000E+00  0.00000000E+00  0.00000000E+00
  0.00000000E+00  0.00000000E+00  0.00000000E+00
  0.00000000E+00  0.00000000E+00  0.00000000E+00
  0.00000000E+00  0.00000000E+00  0.00000000E+00
  0.00000000E+00  0.00000000E+00  0.00000000E+00
  0.00000000E+00  0.00000000E+00  0.00000000E+00
  0.00000000E+00  0.00000000E+00  0.00000000E+00
  0.00000000E+00  0.00000000E+00  0.00000000E+00
