#83 (P 4/m)                             
   6.69716999767753     
     1.0030760069628115   -0.0000000014934857   -0.0000000000000000
     0.0000000014934857    1.0030760069628115    0.0000000000000000
     0.0000000000000000    0.0000000000000000    0.4557742627456848
   Fe   Ta
     6     4
Direct
  0.5000000000000000  0.5000000000000000  0.0000000000000000
  0.7925852686091850  0.5973728794649161  0.5000000000000000
  0.2074147313908150  0.4026271205350839  0.5000000000000000
  0.4026271205350839  0.7925852686091850  0.5000000000000000
  0.5973728794649161  0.2074147313908150  0.5000000000000000
  0.0000000000000000  0.0000000000000000  0.5000000000000000
  0.1070933327664307  0.6962681148665475  0.0000000000000000
  0.8929066672335694  0.3037318851334525  0.0000000000000000
  0.3037318851334525  0.1070933327664307  0.0000000000000000
  0.6962681148665475  0.8929066672335694  0.0000000000000000
 
  0.00000000E+00  0.00000000E+00  0.00000000E+00
  0.00000000E+00  0.00000000E+00  0.00000000E+00
  0.00000000E+00  0.00000000E+00  0.00000000E+00
  0.00000000E+00  0.00000000E+00  0.00000000E+00
  0.00000000E+00  0.00000000E+00  0.00000000E+00
  0.00000000E+00  0.00000000E+00  0.00000000E+00
  0.00000000E+00  0.00000000E+00  0.00000000E+00
  0.00000000E+00  0.00000000E+00  0.00000000E+00
  0.00000000E+00  0.00000000E+00  0.00000000E+00
  0.00000000E+00  0.00000000E+00  0.00000000E+00
