#8 (C m) [unique axis c] cell choice 1  
   8.68731000311407     
     0.2153568329731904    0.0000000000000000   -0.7850986979947918
    -0.4984994920286427    0.2340792295377548    0.0001848262883466
     0.4984994920286427    0.2340792295377548   -0.0001848262883466
   Co   Fe   Ta
     1     8     1
Direct
 -0.0000878325197035 -0.0000938775755582  0.0000938775755582
  0.5869212507225086  0.7921154657989719  0.2078845342010281
  0.1055035029921125  0.3011244272778205  0.6988755727221795
  0.2028376037683648  0.5950125359508088  0.4049874640491912
  0.3950421076415815  0.1946366161471512  0.8053633838528488
  0.7903499396200538  0.3869798827150048  0.6130201172849952
  0.6851272151826824  0.0863540998228469  0.9136459001771530
  0.4942291074596530  0.4916038127187834  0.5083961872812165
  0.2957556720848126  0.8967779896280698  0.1032220103719303
  0.8954314330479339  0.6943790475161019  0.3056209524838981
 
  0.00000000E+00  0.00000000E+00  0.00000000E+00
  0.00000000E+00  0.00000000E+00  0.00000000E+00
  0.00000000E+00  0.00000000E+00  0.00000000E+00
  0.00000000E+00  0.00000000E+00  0.00000000E+00
  0.00000000E+00  0.00000000E+00  0.00000000E+00
  0.00000000E+00  0.00000000E+00  0.00000000E+00
  0.00000000E+00  0.00000000E+00  0.00000000E+00
  0.00000000E+00  0.00000000E+00  0.00000000E+00
  0.00000000E+00  0.00000000E+00  0.00000000E+00
  0.00000000E+00  0.00000000E+00  0.00000000E+00
