#1 (P 1)                                
   4.74844999626372     
     0.9976786205084672    0.0003827198309635   -0.0000115262370228
     0.4938616069791831    0.8710658080885900    0.0000522478976095
     0.4765197713188034   -0.1471877755352586    1.2875700574775097
   Co   Fe   Ta
     1     8     1
Direct
  0.9999084218382760  0.0004388914628228  0.0000347400262150
  0.8430859413446243  0.6023777748152435  0.1766332771112913
  0.3523403954959766  0.1136100271650487  0.1735196571515084
  0.3608525622064858  0.6026078327012526  0.1781496164004714
  0.7178184621908129  0.1469658733731770  0.4139957657623030
  0.0079280238318232  0.4951795117719731  0.4896450357469442
  0.6590439335802222  0.3791818643297282  0.8010607934899167
  0.1779411198316513  0.3799817023692127  0.8030708958323827
  0.6638500420803004  0.8728669876621497  0.8104612726775063
  0.2991010975998223  0.8424495343493903  0.5647389458014611
 
  0.00000000E+00  0.00000000E+00  0.00000000E+00
  0.00000000E+00  0.00000000E+00  0.00000000E+00
  0.00000000E+00  0.00000000E+00  0.00000000E+00
  0.00000000E+00  0.00000000E+00  0.00000000E+00
  0.00000000E+00  0.00000000E+00  0.00000000E+00
  0.00000000E+00  0.00000000E+00  0.00000000E+00
  0.00000000E+00  0.00000000E+00  0.00000000E+00
  0.00000000E+00  0.00000000E+00  0.00000000E+00
  0.00000000E+00  0.00000000E+00  0.00000000E+00
  0.00000000E+00  0.00000000E+00  0.00000000E+00
