#8 (C m) [unique axis c] cell choice 1  
   12.3049300113736     
     0.1133535541873139    0.0000000000000000   -0.3904495392895195
    -0.4996697519754409    0.1650693212917715   -0.0000795537490506
     0.4996697519754409    0.1650693212917715    0.0000795537490506
   Co   Fe   Ta
     1     8     1
Direct
 -0.0001511485538153 -0.0000816161083042  0.0000816161083042
  0.5985228360086705  0.3987841643442029  0.6012158356557971
  0.0942632038805843  0.4040695937005241  0.5959304062994759
  0.8949308901755995  0.5939128399380627  0.4060871600619372
  0.4036922969649378  0.5973872223340282  0.4026127776659718
  0.5087873352819847  0.0028356961703497  0.9971643038296503
  0.8020260252857748  0.1985600580648937  0.8014399419351064
  0.7015029720219162  0.7986599847637436  0.2013400152362563
  0.3070249248989526  0.1931342880291776  0.8068657119708224
  0.2015306640354010  0.7983777687633180  0.2016222312366820
 
  0.00000000E+00  0.00000000E+00  0.00000000E+00
  0.00000000E+00  0.00000000E+00  0.00000000E+00
  0.00000000E+00  0.00000000E+00  0.00000000E+00
  0.00000000E+00  0.00000000E+00  0.00000000E+00
  0.00000000E+00  0.00000000E+00  0.00000000E+00
  0.00000000E+00  0.00000000E+00  0.00000000E+00
  0.00000000E+00  0.00000000E+00  0.00000000E+00
  0.00000000E+00  0.00000000E+00  0.00000000E+00
  0.00000000E+00  0.00000000E+00  0.00000000E+00
  0.00000000E+00  0.00000000E+00  0.00000000E+00
