#65 (C m m m)                           
   14.5883400029206     
    -0.4994700631795299    0.1391621328142302    0.0000000000000000
     0.4994700631795299    0.1391621328142302    0.0000000000000000
     0.0000000000000000    0.0000000000000000   -0.2781218652114241
   Co   Fe   Ta
     1     8     1
Direct
  0.0000000000000000 -0.0000000000000000  0.0000000000000000
  0.3952066923627643  0.6047933076372358 -0.0000000000000000
  0.6047933076372358  0.3952066923627643 -0.0000000000000000
  0.1050386916692490  0.8949613083307509  0.5000000000000000
  0.8949613083307509  0.1050386916692490  0.5000000000000000
  0.2985672531343065  0.7014327468656935  0.5000000000000000
  0.7014327468656935  0.2985672531343065  0.5000000000000000
  0.2007915554330825  0.7992084445669174  0.0000000000000000
  0.7992084445669174  0.2007915554330825  0.0000000000000000
  0.5000000000000000  0.5000000000000000  0.5000000000000000
 
  0.00000000E+00  0.00000000E+00  0.00000000E+00
  0.00000000E+00  0.00000000E+00  0.00000000E+00
  0.00000000E+00  0.00000000E+00  0.00000000E+00
  0.00000000E+00  0.00000000E+00  0.00000000E+00
  0.00000000E+00  0.00000000E+00  0.00000000E+00
  0.00000000E+00  0.00000000E+00  0.00000000E+00
  0.00000000E+00  0.00000000E+00  0.00000000E+00
  0.00000000E+00  0.00000000E+00  0.00000000E+00
  0.00000000E+00  0.00000000E+00  0.00000000E+00
  0.00000000E+00  0.00000000E+00  0.00000000E+00
