#10 (P 2/m) [unique axis c]             
   4.82070999638058     
     0.2665208409979319    0.0000000000000000   -1.2781595431732584
    -0.9961280804367845    0.0000000000000000    0.0004517253437154
     0.0000000000000000    0.8426610392703378    0.0000000000000000
   Co   Fe   Ta
     1     8     1
Direct
  0.0000000000000000  0.0000000000000000 -0.0000000000000000
  0.3944210451857529  0.1868095676520321  0.0000000000000000
  0.6055789548142472  0.8131904323479680  0.0000000000000000
  0.1958612994732091  0.6004740272683918 -0.0000000000000000
  0.8041387005267908  0.3995259727316083 -0.0000000000000000
  0.2943853345043498  0.9035718170054262  0.5000000000000000
  0.7056146654956501  0.0964281829945738  0.5000000000000000
  0.0917513970495141  0.2958632842138033  0.5000000000000000
  0.9082486029504788  0.7041367157861967  0.5000000000000000
  0.5000000000000000  0.5000000000000000  0.5000000000000000
 
  0.00000000E+00  0.00000000E+00  0.00000000E+00
  0.00000000E+00  0.00000000E+00  0.00000000E+00
  0.00000000E+00  0.00000000E+00  0.00000000E+00
  0.00000000E+00  0.00000000E+00  0.00000000E+00
  0.00000000E+00  0.00000000E+00  0.00000000E+00
  0.00000000E+00  0.00000000E+00  0.00000000E+00
  0.00000000E+00  0.00000000E+00  0.00000000E+00
  0.00000000E+00  0.00000000E+00  0.00000000E+00
  0.00000000E+00  0.00000000E+00  0.00000000E+00
  0.00000000E+00  0.00000000E+00  0.00000000E+00
