#8 (C m) [unique axis c] cell choice 1  
   12.3039699977510     
     0.1124829603633497    0.0000000000000000   -0.3904916040016995
    -0.4989254151265945    0.1650220465805128   -0.0005070644773227
     0.4989254151265945    0.1650220465805128    0.0005070644773227
   Co   Fe   Ta
     1     8     1
Direct
  0.9998829831560118  0.0000269338440696  0.9999730661559304
  0.4918068657453906  0.9973224025953479  0.0026775974046521
  0.0938675931586738  0.3965978363515663  0.6034021636484338
  0.5862408439313409  0.4004634106804972  0.5995365893195027
  0.8934933708162147  0.5941625570186645  0.4058374429813355
  0.2936319859831595  0.1953626354085100  0.8046373645914902
  0.3871717457283624  0.5918733481580547  0.4081266518419452
  0.7995121998025696  0.1914672858065218  0.8085327141934783
  0.1931155909452088  0.7956858561000048  0.2043141438999952
  0.6928968207330847  0.7955977340367616  0.2044022659632383
 
  0.00000000E+00  0.00000000E+00  0.00000000E+00
  0.00000000E+00  0.00000000E+00  0.00000000E+00
  0.00000000E+00  0.00000000E+00  0.00000000E+00
  0.00000000E+00  0.00000000E+00  0.00000000E+00
  0.00000000E+00  0.00000000E+00  0.00000000E+00
  0.00000000E+00  0.00000000E+00  0.00000000E+00
  0.00000000E+00  0.00000000E+00  0.00000000E+00
  0.00000000E+00  0.00000000E+00  0.00000000E+00
  0.00000000E+00  0.00000000E+00  0.00000000E+00
  0.00000000E+00  0.00000000E+00  0.00000000E+00
