Fe8Ni8N_1                                
   1.00000000000000     
     5.0773615821920002    0.0000000000000000    0.0000000000000000
     0.0000000000000000    5.0773615821920002    0.0000000000000000
     0.0000000000000000    0.0000000000000000    7.3252111018610000
   Fe   Ni   N 
     8     8     1
Direct
  0.0000000000000000  0.0000000000000000  0.9927478828210852
  0.5000000000000000  0.0000000000000000  0.9892448986271560
  0.0000000000000000  0.5000000000000000  0.9892448986271560
  0.5000000000000000  0.5000000000000000  0.9939383190036608
  0.0000000000000000  0.0000000000000000  0.5072521171789148
  0.5000000000000000  0.0000000000000000  0.5107551013728440
  0.0000000000000000  0.5000000000000000  0.5107551013728440
  0.5000000000000000  0.5000000000000000  0.5060616809963392
  0.2389122936899355  0.2389122936899355  0.2500000000000000
  0.7610877063100645  0.2389122936899355  0.2500000000000000
  0.2389122936899355  0.7610877063100645  0.2500000000000000
  0.7610877063100645  0.7610877063100645  0.2500000000000000
  0.2512723350954360  0.2512723350954360  0.7500000000000000
  0.7487276649045640  0.2512723350954360  0.7500000000000000
  0.2512723350954360  0.7487276649045640  0.7500000000000000
  0.7487276649045640  0.7487276649045640  0.7500000000000000
  0.5000000000000000  0.5000000000000000  0.2500000000000000
 
  0.00000000E+00  0.00000000E+00  0.00000000E+00
  0.00000000E+00  0.00000000E+00  0.00000000E+00
  0.00000000E+00  0.00000000E+00  0.00000000E+00
  0.00000000E+00  0.00000000E+00  0.00000000E+00
  0.00000000E+00  0.00000000E+00  0.00000000E+00
  0.00000000E+00  0.00000000E+00  0.00000000E+00
  0.00000000E+00  0.00000000E+00  0.00000000E+00
  0.00000000E+00  0.00000000E+00  0.00000000E+00
  0.00000000E+00  0.00000000E+00  0.00000000E+00
  0.00000000E+00  0.00000000E+00  0.00000000E+00
  0.00000000E+00  0.00000000E+00  0.00000000E+00
  0.00000000E+00  0.00000000E+00  0.00000000E+00
  0.00000000E+00  0.00000000E+00  0.00000000E+00
  0.00000000E+00  0.00000000E+00  0.00000000E+00
  0.00000000E+00  0.00000000E+00  0.00000000E+00
  0.00000000E+00  0.00000000E+00  0.00000000E+00
  0.00000000E+00  0.00000000E+00  0.00000000E+00
