#12-C12/m1                              
  0.999999999747113     
     8.7040670234229296    0.0000000000000000   -0.0159645015505329
     0.0000000000000000    2.9283785627254777    0.0000000000000000
    -3.3481409193976659    0.0000000000000000    7.0146317686390178
   Fe   Si
    12     4
Direct
  0.1256889411931539  0.0000000000000000  0.4411458063523668
  0.8743110588068461  0.0000000000000000  0.5588541936476332
  0.6256889411931539  0.5000000000000000  0.4411458063523668
  0.3743110588068461  0.5000000000000000  0.5588541936476332
  0.3787607236295045  0.0000000000000000  0.3073583750152622
  0.6212392763704955  0.0000000000000000  0.6926416249847378
  0.8787607236295045  0.5000000000000000  0.3073583750152622
  0.1212392763704955  0.5000000000000000  0.6926416249847378
  0.1220996802447658  0.0000000000000000  0.9447975213967652
  0.8779003197552413  0.0000000000000000  0.0552024786032348
  0.6220996802447587  0.5000000000000000  0.9447975213967652
  0.3779003197552413  0.5000000000000000  0.0552024786032348
  0.3691466065532651  0.0000000000000000  0.8029056376340193
  0.6308533934467349  0.0000000000000000  0.1970943623659807
  0.8691466065532651  0.5000000000000000  0.8029056376340193
  0.1308533934467349  0.5000000000000000  0.1970943623659807
 
  0.00000000E+00  0.00000000E+00  0.00000000E+00
  0.00000000E+00  0.00000000E+00  0.00000000E+00
  0.00000000E+00  0.00000000E+00  0.00000000E+00
  0.00000000E+00  0.00000000E+00  0.00000000E+00
  0.00000000E+00  0.00000000E+00  0.00000000E+00
  0.00000000E+00  0.00000000E+00  0.00000000E+00
  0.00000000E+00  0.00000000E+00  0.00000000E+00
  0.00000000E+00  0.00000000E+00  0.00000000E+00
  0.00000000E+00  0.00000000E+00  0.00000000E+00
  0.00000000E+00  0.00000000E+00  0.00000000E+00
  0.00000000E+00  0.00000000E+00  0.00000000E+00
  0.00000000E+00  0.00000000E+00  0.00000000E+00
  0.00000000E+00  0.00000000E+00  0.00000000E+00
  0.00000000E+00  0.00000000E+00  0.00000000E+00
  0.00000000E+00  0.00000000E+00  0.00000000E+00
  0.00000000E+00  0.00000000E+00  0.00000000E+00
