#63-C2/m2/c21/m                         
   1.00000000074819     
     5.5233157084851019    0.0000000000000000    0.0000000000000000
     0.0000000000000000    7.9742536106449080    0.0000000000000000
     0.0000000000000000    0.0000000000000000    3.9612524633761232
   Fe   Si
    12     4
Direct
  0.7427014582382441  0.3797296645653105  0.2500000000000000
  0.7427014582382441  0.6202703354346895  0.7500000000000000
  0.2572985417617559  0.3797296645653105  0.2500000000000000
  0.2572985417617559  0.6202703354346895  0.7500000000000000
  0.2427014582382441  0.8797296645653105  0.2500000000000000
  0.2427014582382441  0.1202703354346895  0.7500000000000000
  0.7572985417617559  0.8797296645653105  0.2500000000000000
  0.7572985417617559  0.1202703354346895  0.7500000000000000
  0.0000000000000000  0.6259105645795486  0.2500000000000000
  0.0000000000000000  0.3740894354204514  0.7500000000000000
  0.5000000000000000  0.1259105645795486  0.2500000000000000
  0.5000000000000000  0.8740894354204514  0.7500000000000000
  0.0000000000000000  0.1382374767033028  0.2500000000000000
  0.0000000000000000  0.8617625232966972  0.7500000000000000
  0.5000000000000000  0.6382374767033028  0.2500000000000000
  0.5000000000000000  0.3617625232966972  0.7500000000000000
 
  0.00000000E+00  0.00000000E+00  0.00000000E+00
  0.00000000E+00  0.00000000E+00  0.00000000E+00
  0.00000000E+00  0.00000000E+00  0.00000000E+00
  0.00000000E+00  0.00000000E+00  0.00000000E+00
  0.00000000E+00  0.00000000E+00  0.00000000E+00
  0.00000000E+00  0.00000000E+00  0.00000000E+00
  0.00000000E+00  0.00000000E+00  0.00000000E+00
  0.00000000E+00  0.00000000E+00  0.00000000E+00
  0.00000000E+00  0.00000000E+00  0.00000000E+00
  0.00000000E+00  0.00000000E+00  0.00000000E+00
  0.00000000E+00  0.00000000E+00  0.00000000E+00
  0.00000000E+00  0.00000000E+00  0.00000000E+00
  0.00000000E+00  0.00000000E+00  0.00000000E+00
  0.00000000E+00  0.00000000E+00  0.00000000E+00
  0.00000000E+00  0.00000000E+00  0.00000000E+00
  0.00000000E+00  0.00000000E+00  0.00000000E+00
