#166-R-32/m(hexagonalaxes)              
   1.00000000012248     
     3.9329916195862471    0.0000000000000000    0.0000000000000000
    -1.9664958097931236    3.4060706554329929    0.0000000000000000
     0.0000000000000000    0.0000000000000000   19.4056305331143761
   Fe   Si
    18     6
Direct
  0.0000000000000000  0.0000000000000000  0.6251567981863815
  0.0000000000000000  0.0000000000000000  0.3748432018136185
  0.3333330000000032  0.6666669999999968  0.2918237981863783
  0.3333330000000032  0.6666669999999968  0.0415102018136224
  0.6666669999999968  0.3333330000000032  0.9584897981863776
  0.6666669999999968  0.3333330000000032  0.7081762018136217
  0.0000000000000000  0.0000000000000000  0.5000000000000000
  0.3333330000000032  0.6666669999999968  0.1666669999999968
  0.6666669999999968  0.3333330000000032  0.8333330000000032
  0.0000000000000000  0.0000000000000000  0.0000000000000000
  0.3333330000000032  0.6666669999999968  0.6666669999999968
  0.6666669999999968  0.3333330000000032  0.3333330000000032
  0.0000000000000000  0.0000000000000000  0.2465839689093059
  0.0000000000000000  0.0000000000000000  0.7534160310906941
  0.3333330000000032  0.6666669999999968  0.9132509689093027
  0.3333330000000032  0.6666669999999968  0.4200830310906909
  0.6666669999999968  0.3333330000000032  0.5799169689093091
  0.6666669999999968  0.3333330000000032  0.0867490310906973
  0.0000000000000000  0.0000000000000000  0.8776636827404616
  0.0000000000000000  0.0000000000000000  0.1223363172595384
  0.3333330000000032  0.6666669999999968  0.5443306827404584
  0.3333330000000032  0.6666669999999968  0.7890033172595423
  0.6666669999999968  0.3333330000000032  0.2109966827404577
  0.6666669999999968  0.3333330000000032  0.4556693172595416
 
  0.00000000E+00  0.00000000E+00  0.00000000E+00
  0.00000000E+00  0.00000000E+00  0.00000000E+00
  0.00000000E+00  0.00000000E+00  0.00000000E+00
  0.00000000E+00  0.00000000E+00  0.00000000E+00
  0.00000000E+00  0.00000000E+00  0.00000000E+00
  0.00000000E+00  0.00000000E+00  0.00000000E+00
  0.00000000E+00  0.00000000E+00  0.00000000E+00
  0.00000000E+00  0.00000000E+00  0.00000000E+00
  0.00000000E+00  0.00000000E+00  0.00000000E+00
  0.00000000E+00  0.00000000E+00  0.00000000E+00
  0.00000000E+00  0.00000000E+00  0.00000000E+00
  0.00000000E+00  0.00000000E+00  0.00000000E+00
  0.00000000E+00  0.00000000E+00  0.00000000E+00
  0.00000000E+00  0.00000000E+00  0.00000000E+00
  0.00000000E+00  0.00000000E+00  0.00000000E+00
  0.00000000E+00  0.00000000E+00  0.00000000E+00
  0.00000000E+00  0.00000000E+00  0.00000000E+00
  0.00000000E+00  0.00000000E+00  0.00000000E+00
  0.00000000E+00  0.00000000E+00  0.00000000E+00
  0.00000000E+00  0.00000000E+00  0.00000000E+00
  0.00000000E+00  0.00000000E+00  0.00000000E+00
  0.00000000E+00  0.00000000E+00  0.00000000E+00
  0.00000000E+00  0.00000000E+00  0.00000000E+00
  0.00000000E+00  0.00000000E+00  0.00000000E+00
