#12-C12/m1                              
   1.00000000078475     
     8.5708064110724056    0.0000000000000000    0.0144378776077491
     0.0000000000000000    3.9582270723401618    0.0000000000000000
    -1.7243294015002839    0.0000000000000000    5.2706117157000127
   Fe   Si
    12     4
Direct
  0.1241835542916050  0.0000000000000000  0.4415831151351455
  0.8758164457083879  0.0000000000000000  0.5584168848648545
  0.6241835542916121  0.5000000000000000  0.4415831151351455
  0.3758164457083950  0.5000000000000000  0.5584168848648545
  0.8763204684574362  0.0000000000000000  0.0682275476284957
  0.1236795315425638  0.0000000000000000  0.9317724523715043
  0.3763204684574362  0.5000000000000000  0.0682275476284957
  0.6236795315425638  0.5000000000000000  0.9317724523715043
  0.3775651380542726  0.0000000000000000  0.8109068563831769
  0.6224348619457274  0.0000000000000000  0.1890931436168231
  0.8775651380542726  0.5000000000000000  0.8109068563831769
  0.1224348619457274  0.5000000000000000  0.1890931436168231
  0.6390139825078265  0.0000000000000000  0.7020938317780647
  0.3609860174921735  0.0000000000000000  0.2979061682219353
  0.1390139825078265  0.5000000000000000  0.7020938317780647
  0.8609860174921735  0.5000000000000000  0.2979061682219353
 
  0.00000000E+00  0.00000000E+00  0.00000000E+00
  0.00000000E+00  0.00000000E+00  0.00000000E+00
  0.00000000E+00  0.00000000E+00  0.00000000E+00
  0.00000000E+00  0.00000000E+00  0.00000000E+00
  0.00000000E+00  0.00000000E+00  0.00000000E+00
  0.00000000E+00  0.00000000E+00  0.00000000E+00
  0.00000000E+00  0.00000000E+00  0.00000000E+00
  0.00000000E+00  0.00000000E+00  0.00000000E+00
  0.00000000E+00  0.00000000E+00  0.00000000E+00
  0.00000000E+00  0.00000000E+00  0.00000000E+00
  0.00000000E+00  0.00000000E+00  0.00000000E+00
  0.00000000E+00  0.00000000E+00  0.00000000E+00
  0.00000000E+00  0.00000000E+00  0.00000000E+00
  0.00000000E+00  0.00000000E+00  0.00000000E+00
  0.00000000E+00  0.00000000E+00  0.00000000E+00
  0.00000000E+00  0.00000000E+00  0.00000000E+00
