#194-P63/m2/m2/c                        
   1.00000000029834     
     5.0152923740532040    0.0000000000000000    0.0000000000000000
    -2.5076461870266020    4.3433706033364441    0.0000000000000000
     0.0000000000000000    0.0000000000000000    4.1217211997475829
   Fe   Si
     6     2
Direct
  0.1659020930222042  0.3318141860444044  0.2500000000000000
  0.8340879069777927  0.1659020930222042  0.7500000000000000
  0.6681858139555956  0.8340879069777927  0.2500000000000000
  0.8340979069777958  0.6681858139555956  0.7500000000000000
  0.1659120930222073  0.8340979069777958  0.2500000000000000
  0.3318141860444044  0.1659120930222073  0.7500000000000000
  0.3333299999999966  0.6666700000000034  0.7500000000000000
  0.6666600000000003  0.3333299999999966  0.2500000000000000
 
  0.00000000E+00  0.00000000E+00  0.00000000E+00
  0.00000000E+00  0.00000000E+00  0.00000000E+00
  0.00000000E+00  0.00000000E+00  0.00000000E+00
  0.00000000E+00  0.00000000E+00  0.00000000E+00
  0.00000000E+00  0.00000000E+00  0.00000000E+00
  0.00000000E+00  0.00000000E+00  0.00000000E+00
  0.00000000E+00  0.00000000E+00  0.00000000E+00
  0.00000000E+00  0.00000000E+00  0.00000000E+00
