#166-R-32/m(hexagonalaxes)              
   1.00000000010944     
     3.9522412255430011    0.0000000000000000    0.0000000000000000
    -1.9761206127715005    3.4227413032043823    0.0000000000000000
     0.0000000000000000    0.0000000000000000   20.0754426673304991
   Fe   Si
    18     6
Direct
  0.0000000000000000  0.0000000000000000  0.4379852946925240
  0.0000000000000000  0.0000000000000000  0.5620147053074760
  0.3333330000000032  0.6666669999999968  0.1046522946925208
  0.3333330000000032  0.6666669999999968  0.2286817053074799
  0.6666669999999968  0.3333330000000032  0.7713182946925201
  0.6666669999999968  0.3333330000000032  0.8953477053074792
  0.0000000000000000  0.0000000000000000  0.6857627468593392
  0.0000000000000000  0.0000000000000000  0.3142372531406608
  0.3333330000000032  0.6666669999999968  0.3524297468593360
  0.3333330000000032  0.6666669999999968  0.9809042531406647
  0.6666669999999968  0.3333330000000032  0.0190957468593353
  0.6666669999999968  0.3333330000000032  0.6475702531406640
  0.0000000000000000  0.0000000000000000  0.8103877391134091
  0.0000000000000000  0.0000000000000000  0.1896122608865909
  0.3333330000000032  0.6666669999999968  0.4770547391134130
  0.3333330000000032  0.6666669999999968  0.8562792608865877
  0.6666669999999968  0.3333330000000032  0.1437207391134123
  0.6666669999999968  0.3333330000000032  0.5229452608865870
  0.0000000000000000  0.0000000000000000  0.0683294064113156
  0.0000000000000000  0.0000000000000000  0.9316705935886844
  0.3333330000000032  0.6666669999999968  0.7349964064113124
  0.3333330000000032  0.6666669999999968  0.5983375935886883
  0.6666669999999968  0.3333330000000032  0.4016624064113117
  0.6666669999999968  0.3333330000000032  0.2650035935886876
 
  0.00000000E+00  0.00000000E+00  0.00000000E+00
  0.00000000E+00  0.00000000E+00  0.00000000E+00
  0.00000000E+00  0.00000000E+00  0.00000000E+00
  0.00000000E+00  0.00000000E+00  0.00000000E+00
  0.00000000E+00  0.00000000E+00  0.00000000E+00
  0.00000000E+00  0.00000000E+00  0.00000000E+00
  0.00000000E+00  0.00000000E+00  0.00000000E+00
  0.00000000E+00  0.00000000E+00  0.00000000E+00
  0.00000000E+00  0.00000000E+00  0.00000000E+00
  0.00000000E+00  0.00000000E+00  0.00000000E+00
  0.00000000E+00  0.00000000E+00  0.00000000E+00
  0.00000000E+00  0.00000000E+00  0.00000000E+00
  0.00000000E+00  0.00000000E+00  0.00000000E+00
  0.00000000E+00  0.00000000E+00  0.00000000E+00
  0.00000000E+00  0.00000000E+00  0.00000000E+00
  0.00000000E+00  0.00000000E+00  0.00000000E+00
  0.00000000E+00  0.00000000E+00  0.00000000E+00
  0.00000000E+00  0.00000000E+00  0.00000000E+00
  0.00000000E+00  0.00000000E+00  0.00000000E+00
  0.00000000E+00  0.00000000E+00  0.00000000E+00
  0.00000000E+00  0.00000000E+00  0.00000000E+00
  0.00000000E+00  0.00000000E+00  0.00000000E+00
  0.00000000E+00  0.00000000E+00  0.00000000E+00
  0.00000000E+00  0.00000000E+00  0.00000000E+00
