#51-P21/m2/m2/a                         
  0.999999998379454     
     3.9100294701590439    0.0000000000000000    0.0000000000000000
     0.0000000000000000    2.8119249908680715    0.0000000000000000
     0.0000000000000000    0.0000000000000000    7.9039182159018093
   Fe   Si
     6     2
Direct
  0.2500000000000000  0.0000000000000000  0.3731844565898257
  0.7500000000000000  0.0000000000000000  0.6268155434101743
  0.2500000000000000  0.5000000000000000  0.1161779528992071
  0.7500000000000000  0.5000000000000000  0.8838220471007929
  0.2500000000000000  0.5000000000000000  0.6274094814142614
  0.7500000000000000  0.5000000000000000  0.3725905185857386
  0.2500000000000000  0.0000000000000000  0.8705323880269660
  0.7500000000000000  0.0000000000000000  0.1294676119730340
 
  0.00000000E+00  0.00000000E+00  0.00000000E+00
  0.00000000E+00  0.00000000E+00  0.00000000E+00
  0.00000000E+00  0.00000000E+00  0.00000000E+00
  0.00000000E+00  0.00000000E+00  0.00000000E+00
  0.00000000E+00  0.00000000E+00  0.00000000E+00
  0.00000000E+00  0.00000000E+00  0.00000000E+00
  0.00000000E+00  0.00000000E+00  0.00000000E+00
  0.00000000E+00  0.00000000E+00  0.00000000E+00
