#123-P4/m2/m2/m                         
   1.00000000360438     
     2.8386355149582609    0.0000000000000000    0.0000000000000000
     0.0000000000000000    2.8386355149582609    0.0000000000000000
     0.0000000000000000    0.0000000000000000    5.4577086067658636
   Fe   Si
     3     1
Direct
  0.5000000000000000  0.5000000000000000  0.7422958868399618
  0.5000000000000000  0.5000000000000000  0.2577041131600382
  0.0000000000000000  0.0000000000000000  0.0000000000000000
  0.0000000000000000  0.0000000000000000  0.5000000000000000
 
  0.00000000E+00  0.00000000E+00  0.00000000E+00
  0.00000000E+00  0.00000000E+00  0.00000000E+00
  0.00000000E+00  0.00000000E+00  0.00000000E+00
  0.00000000E+00  0.00000000E+00  0.00000000E+00
