#123-P4/m2/m2/m                         
   1.00000000143119     
     3.9110332025121965    0.0000000000000000    0.0000000000000000
     0.0000000000000000    3.9110332025121965    0.0000000000000000
     0.0000000000000000    0.0000000000000000    2.8195433668616436
   Fe   Si
     3     1
Direct
  0.5000000000000000  0.5000000000000000  0.5000000000000000
  0.0000000000000000  0.5000000000000000  0.0000000000000000
  0.5000000000000000  0.0000000000000000  0.0000000000000000
  0.0000000000000000  0.0000000000000000  0.5000000000000000
 
  0.00000000E+00  0.00000000E+00  0.00000000E+00
  0.00000000E+00  0.00000000E+00  0.00000000E+00
  0.00000000E+00  0.00000000E+00  0.00000000E+00
  0.00000000E+00  0.00000000E+00  0.00000000E+00
