#11-P121/m1                             
   1.00000000057547     
     4.6542085527229338    0.0000000000000000    0.0042826895031755
     0.0000000000000000    3.9624730817536471    0.0000000000000000
    -0.7512433643841008    0.0000000000000000    4.7782617028073826
   Fe   Si
     6     2
Direct
  0.1328806034588226  0.2500000000000000  0.4408147523039148
  0.8671193965411774  0.7500000000000000  0.5591852476960852
  0.6269261439752825  0.2500000000000000  0.7010479599083297
  0.3730738560247175  0.7500000000000000  0.2989520400916703
  0.1336721201196056  0.2500000000000000  0.9434254415989614
  0.8663278798803944  0.7500000000000000  0.0565745584010386
  0.6364467010304864  0.2500000000000000  0.2076082459882755
  0.3635532989695136  0.7500000000000000  0.7923917540117245
 
  0.00000000E+00  0.00000000E+00  0.00000000E+00
  0.00000000E+00  0.00000000E+00  0.00000000E+00
  0.00000000E+00  0.00000000E+00  0.00000000E+00
  0.00000000E+00  0.00000000E+00  0.00000000E+00
  0.00000000E+00  0.00000000E+00  0.00000000E+00
  0.00000000E+00  0.00000000E+00  0.00000000E+00
  0.00000000E+00  0.00000000E+00  0.00000000E+00
  0.00000000E+00  0.00000000E+00  0.00000000E+00
