#62-P21/n21/m21/a                       
   1.00000000132452     
     5.4524660382977306    0.0000000000000000    0.0000000000000000
     0.0000000000000000    3.9513312573063208    0.0000000000000000
     0.0000000000000000    0.0000000000000000    4.9969441078037065
   Fe   Ge
     4     4
Direct
  0.4759607194621793  0.2500000000000000  0.6479543680722841
  0.9759607194621793  0.2500000000000000  0.8520456319277159
  0.5240392805378207  0.7500000000000000  0.3520456319277159
  0.0240392805378207  0.7500000000000000  0.1479543680722841
  0.8421770046470982  0.2500000000000000  0.3742800301896025
  0.3421770046470982  0.2500000000000000  0.1257199698103975
  0.1578229953529018  0.7500000000000000  0.6257199698103975
  0.6578229953529018  0.7500000000000000  0.8742800301896025
 
  0.00000000E+00  0.00000000E+00  0.00000000E+00
  0.00000000E+00  0.00000000E+00  0.00000000E+00
  0.00000000E+00  0.00000000E+00  0.00000000E+00
  0.00000000E+00  0.00000000E+00  0.00000000E+00
  0.00000000E+00  0.00000000E+00  0.00000000E+00
  0.00000000E+00  0.00000000E+00  0.00000000E+00
  0.00000000E+00  0.00000000E+00  0.00000000E+00
  0.00000000E+00  0.00000000E+00  0.00000000E+00
