#198-P213                               
   1.00000000092344     
     4.6631056016662082    0.0000000000000000    0.0000000000000000
     0.0000000000000000    4.6631056016662082    0.0000000000000000
     0.0000000000000000    0.0000000000000000    4.6631056016662082
   Fe   Ge
     4     4
Direct
  0.3648968009599116  0.3648968009599116  0.3648968009599116
  0.8648968009599116  0.1351031990400884  0.6351031990400884
  0.6351031990400884  0.8648968009599116  0.1351031990400884
  0.1351031990400884  0.6351031990400884  0.8648968009599116
  0.6582906005707230  0.6582906005707230  0.6582906005707230
  0.1582906005707230  0.8417093994292770  0.3417093994292770
  0.3417093994292770  0.1582906005707230  0.8417093994292770
  0.8417093994292770  0.3417093994292770  0.1582906005707230
 
  0.00000000E+00  0.00000000E+00  0.00000000E+00
  0.00000000E+00  0.00000000E+00  0.00000000E+00
  0.00000000E+00  0.00000000E+00  0.00000000E+00
  0.00000000E+00  0.00000000E+00  0.00000000E+00
  0.00000000E+00  0.00000000E+00  0.00000000E+00
  0.00000000E+00  0.00000000E+00  0.00000000E+00
  0.00000000E+00  0.00000000E+00  0.00000000E+00
  0.00000000E+00  0.00000000E+00  0.00000000E+00
