#191-P6/m2/m2/m                         
   1.00000000126350     
     4.9566807710475551    0.0000000000000000    0.0000000000000000
    -2.4783403855237776    4.2926114661770205    0.0000000000000000
     0.0000000000000000    0.0000000000000000    4.0461572558593675
   Fe   Ge
     3     3
Direct
  0.5000000000000000  0.0000000000000000  0.5000000000000000
  0.5000000000000000  0.5000000000000000  0.5000000000000000
  0.0000000000000000  0.5000000000000000  0.5000000000000000
  0.3333299999999966  0.6666700000000034  0.0000000000000000
  0.6666600000000003  0.3333299999999966  0.0000000000000000
  0.0000000000000000  0.0000000000000000  0.5000000000000000
 
  0.00000000E+00  0.00000000E+00  0.00000000E+00
  0.00000000E+00  0.00000000E+00  0.00000000E+00
  0.00000000E+00  0.00000000E+00  0.00000000E+00
  0.00000000E+00  0.00000000E+00  0.00000000E+00
  0.00000000E+00  0.00000000E+00  0.00000000E+00
  0.00000000E+00  0.00000000E+00  0.00000000E+00
