#8-C1m1                                 
  0.999999999994802     
     8.7544041879927068    0.0000000000000000   -0.0095558530908610
     0.0000000000000000    3.0834693578428749    0.0000000000000000
    -1.0558899381616937    0.0000000000000000    6.0788122313874613
   Fe   Ge
     6     6
Direct
  0.3044545389772679  0.0000000000000000  0.5611909916295375
  0.8044545389772679  0.5000000000000000  0.5611909916295375
  0.7564255954694517  0.0000000000000000  0.8828028110383741
  0.2564255954694517  0.5000000000000000  0.8828028110383741
  0.1144917988198628  0.0000000000000000  0.1698820391121956
  0.6144917988198628  0.5000000000000000  0.1698820391121956
  0.8450009463096606  0.0000000000000000  0.2734853581854537
  0.3450009463096606  0.5000000000000000  0.2734853581854537
  0.5860281835971506  0.0000000000000000  0.5015972605460703
  0.0860281835971577  0.5000000000000000  0.5015972605460703
  0.4795789368265986  0.0000000000000000  0.8997215394883753
  0.9795789368265986  0.5000000000000000  0.8997215394883753
 
  0.00000000E+00  0.00000000E+00  0.00000000E+00
  0.00000000E+00  0.00000000E+00  0.00000000E+00
  0.00000000E+00  0.00000000E+00  0.00000000E+00
  0.00000000E+00  0.00000000E+00  0.00000000E+00
  0.00000000E+00  0.00000000E+00  0.00000000E+00
  0.00000000E+00  0.00000000E+00  0.00000000E+00
  0.00000000E+00  0.00000000E+00  0.00000000E+00
  0.00000000E+00  0.00000000E+00  0.00000000E+00
  0.00000000E+00  0.00000000E+00  0.00000000E+00
  0.00000000E+00  0.00000000E+00  0.00000000E+00
  0.00000000E+00  0.00000000E+00  0.00000000E+00
  0.00000000E+00  0.00000000E+00  0.00000000E+00
