#63-C2/m2/c21/m                         
   1.00000000090227     
     3.1478283051240221    0.0000000000000000    0.0000000000000000
     0.0000000000000000    7.2128338492951958    0.0000000000000000
     0.0000000000000000    0.0000000000000000    4.9605380260239063
   Fe   Ge
     4     4
Direct
  0.0000000000000000  0.5000000000000000  0.0000000000000000
  0.0000000000000000  0.5000000000000000  0.5000000000000000
  0.5000000000000000  0.0000000000000000  0.0000000000000000
  0.5000000000000000  0.0000000000000000  0.5000000000000000
  0.0000000000000000  0.7974504554163033  0.2500000000000000
  0.0000000000000000  0.2025495445836967  0.7500000000000000
  0.5000000000000000  0.2974504554163033  0.2500000000000000
  0.5000000000000000  0.7025495445836967  0.7500000000000000
 
  0.00000000E+00  0.00000000E+00  0.00000000E+00
  0.00000000E+00  0.00000000E+00  0.00000000E+00
  0.00000000E+00  0.00000000E+00  0.00000000E+00
  0.00000000E+00  0.00000000E+00  0.00000000E+00
  0.00000000E+00  0.00000000E+00  0.00000000E+00
  0.00000000E+00  0.00000000E+00  0.00000000E+00
  0.00000000E+00  0.00000000E+00  0.00000000E+00
  0.00000000E+00  0.00000000E+00  0.00000000E+00
