#129-P4/n21/m2/m(originchoice2)         
  0.999999997084886     
     3.2322148370659236    0.0000000000000000    0.0000000000000000
     0.0000000000000000    3.2322148370659236    0.0000000000000000
     0.0000000000000000    0.0000000000000000    5.0852927140813726
   Fe   Ge
     2     2
Direct
  0.2500000000000000  0.2500000000000000  0.6447812796389982
  0.7500000000000000  0.7500000000000000  0.3552187203610018
  0.2500000000000000  0.2500000000000000  0.1568489677398546
  0.7500000000000000  0.7500000000000000  0.8431510322601454
 
  0.00000000E+00  0.00000000E+00  0.00000000E+00
  0.00000000E+00  0.00000000E+00  0.00000000E+00
  0.00000000E+00  0.00000000E+00  0.00000000E+00
  0.00000000E+00  0.00000000E+00  0.00000000E+00
