#187-P-6m2                              
  0.999999994917055     
     2.8952086277600597    0.0000000000000000    0.0000000000000000
    -1.4476043138800299    2.5073242208960966    0.0000000000000000
     0.0000000000000000    0.0000000000000000    3.5841285583151983
   Fe   Ge
     1     1
Direct
  0.0000000000000000  0.0000000000000000  0.5000000000000000
  0.6666700000000034  0.3333299999999966  0.0000000000000000
 
  0.00000000E+00  0.00000000E+00  0.00000000E+00
  0.00000000E+00  0.00000000E+00  0.00000000E+00
