#12-C12/m1                              
  0.999999999252164     
    11.8665199735385745    0.0000000000000000   -0.0019334538528935
     0.0000000000000000    3.9172222882893220    0.0000000000000000
    -1.1777098276369888    0.0000000000000000    4.7399518945891357
   Fe   Ge
     8     8
Direct
  0.0000000000000000  0.0000000000000000  0.0000000000000000
  0.5000000000000000  0.5000000000000000  0.0000000000000000
  0.0000000000000000  0.0000000000000000  0.5000000000000000
  0.5000000000000000  0.5000000000000000  0.5000000000000000
  0.2051295091262588  0.0000000000000000  0.3604796526832601
  0.7948704908737412  0.0000000000000000  0.6395203473167399
  0.7051295091262588  0.5000000000000000  0.3604796526832601
  0.2948704908737412  0.5000000000000000  0.6395203473167399
  0.5701681578851492  0.0000000000000000  0.3000739216318848
  0.4298318421148508  0.0000000000000000  0.6999260783681081
  0.0701681578851492  0.5000000000000000  0.3000739216318848
  0.9298318421148508  0.5000000000000000  0.6999260783681081
  0.8161313480841059  0.0000000000000000  0.1562909729189315
  0.1838686519158941  0.0000000000000000  0.8437090270810685
  0.3161313480841059  0.5000000000000000  0.1562909729189315
  0.6838686519158941  0.5000000000000000  0.8437090270810685
 
  0.00000000E+00  0.00000000E+00  0.00000000E+00
  0.00000000E+00  0.00000000E+00  0.00000000E+00
  0.00000000E+00  0.00000000E+00  0.00000000E+00
  0.00000000E+00  0.00000000E+00  0.00000000E+00
  0.00000000E+00  0.00000000E+00  0.00000000E+00
  0.00000000E+00  0.00000000E+00  0.00000000E+00
  0.00000000E+00  0.00000000E+00  0.00000000E+00
  0.00000000E+00  0.00000000E+00  0.00000000E+00
  0.00000000E+00  0.00000000E+00  0.00000000E+00
  0.00000000E+00  0.00000000E+00  0.00000000E+00
  0.00000000E+00  0.00000000E+00  0.00000000E+00
  0.00000000E+00  0.00000000E+00  0.00000000E+00
  0.00000000E+00  0.00000000E+00  0.00000000E+00
  0.00000000E+00  0.00000000E+00  0.00000000E+00
  0.00000000E+00  0.00000000E+00  0.00000000E+00
  0.00000000E+00  0.00000000E+00  0.00000000E+00
