#8-C1m1                                 
  0.999999999355483     
    11.8193220519321631    0.0000000000000000   -0.0073730788180801
     0.0000000000000000    4.0864999607763544    0.0000000000000000
    -1.5878871234699288    0.0000000000000000    4.6298086712973898
   Fe   Ge
     8     8
Direct
  0.8579463903224678  0.0000000000000000  0.0398355745231953
  0.3579463903224678  0.5000000000000000  0.0398355745231953
  0.7000922663000324  0.0000000000000000  0.3312158911190508
  0.2000922663000324  0.5000000000000000  0.3312158911190508
  0.4820809354429940  0.0000000000000000  0.9703705149144923
  0.9820809354429940  0.5000000000000000  0.9703705149144923
  0.2700587126368745  0.0000000000000000  0.6517572548113080
  0.7700587126368745  0.5000000000000000  0.6517572548113080
  0.9253005287642395  0.0000000000000000  0.6240193569909778
  0.4253005287642395  0.5000000000000000  0.6240193569909778
  0.0681979601547056  0.0000000000000000  0.2875826313422962
  0.5681979601547056  0.5000000000000000  0.2875826313422962
  0.3073675050088411  0.0000000000000000  0.1916101590138624
  0.8073675050088411  0.5000000000000000  0.1916101590138624
  0.6437857013698647  0.0000000000000000  0.7745186172848477
  0.1437857013698647  0.5000000000000000  0.7745186172848477
 
  0.00000000E+00  0.00000000E+00  0.00000000E+00
  0.00000000E+00  0.00000000E+00  0.00000000E+00
  0.00000000E+00  0.00000000E+00  0.00000000E+00
  0.00000000E+00  0.00000000E+00  0.00000000E+00
  0.00000000E+00  0.00000000E+00  0.00000000E+00
  0.00000000E+00  0.00000000E+00  0.00000000E+00
  0.00000000E+00  0.00000000E+00  0.00000000E+00
  0.00000000E+00  0.00000000E+00  0.00000000E+00
  0.00000000E+00  0.00000000E+00  0.00000000E+00
  0.00000000E+00  0.00000000E+00  0.00000000E+00
  0.00000000E+00  0.00000000E+00  0.00000000E+00
  0.00000000E+00  0.00000000E+00  0.00000000E+00
  0.00000000E+00  0.00000000E+00  0.00000000E+00
  0.00000000E+00  0.00000000E+00  0.00000000E+00
  0.00000000E+00  0.00000000E+00  0.00000000E+00
  0.00000000E+00  0.00000000E+00  0.00000000E+00
