#62-P21/n21/m21/a                       
  0.999999998843027     
     5.6548436809310081    0.0000000000000000    0.0000000000000000
     0.0000000000000000    3.1929776387148148    0.0000000000000000
     0.0000000000000000    0.0000000000000000    6.0659855974598589
   Fe   Ge
     4     4
Direct
  0.9942884629306405  0.2500000000000000  0.8194642365866471
  0.4942884629306405  0.2500000000000000  0.6805357634133529
  0.0057115370693595  0.7500000000000000  0.1805357634133529
  0.5057115370693595  0.7500000000000000  0.3194642365866471
  0.8148408785091377  0.2500000000000000  0.4278950669133010
  0.3148408785091377  0.2500000000000000  0.0721049330866990
  0.1851591214908623  0.7500000000000000  0.5721049330866990
  0.6851591214908623  0.7500000000000000  0.9278950669133010
 
  0.00000000E+00  0.00000000E+00  0.00000000E+00
  0.00000000E+00  0.00000000E+00  0.00000000E+00
  0.00000000E+00  0.00000000E+00  0.00000000E+00
  0.00000000E+00  0.00000000E+00  0.00000000E+00
  0.00000000E+00  0.00000000E+00  0.00000000E+00
  0.00000000E+00  0.00000000E+00  0.00000000E+00
  0.00000000E+00  0.00000000E+00  0.00000000E+00
  0.00000000E+00  0.00000000E+00  0.00000000E+00
