#12-C12/m1                              
  0.999999999711736     
     9.0435504271863110    0.0000000000000000   -0.0055523190864801
     0.0000000000000000    3.0781944501541751    0.0000000000000000
    -0.8523022163128734    0.0000000000000000    6.4174570592698217
   Fe   Sb
    12     2
Direct
  0.7735202786606522 -0.0000000000000000  0.8447781525452289
  0.2264797213393480  0.0000000000000000  0.1552218474547712
  0.2735202786606520  0.5000000000000000  0.8447781525452289
  0.7264797213393478  0.5000000000000000  0.1552218474547712
  0.6439288192234788 -0.0000000000000000  0.4286503374063622
  0.3560711807765212  0.0000000000000000  0.5713496625936377
  0.1439288192234788  0.5000000000000000  0.4286503374063622
  0.8560711807765212  0.5000000000000000  0.5713496625936377
  0.9270694648724515  0.0000000000000000  0.3033828325736795
  0.0729305351275485 -0.0000000000000000  0.6966171674263205
  0.4270694648724515  0.5000000000000000  0.3033828325736795
  0.5729305351275485  0.5000000000000000  0.6966171674263205
  0.0000000000000000  0.5000000000000000 -0.0000000000000000
  0.5000000000000000  0.0000000000000000 -0.0000000000000000
 
  0.00000000E+00  0.00000000E+00  0.00000000E+00
  0.00000000E+00  0.00000000E+00  0.00000000E+00
  0.00000000E+00  0.00000000E+00  0.00000000E+00
  0.00000000E+00  0.00000000E+00  0.00000000E+00
  0.00000000E+00  0.00000000E+00  0.00000000E+00
  0.00000000E+00  0.00000000E+00  0.00000000E+00
  0.00000000E+00  0.00000000E+00  0.00000000E+00
  0.00000000E+00  0.00000000E+00  0.00000000E+00
  0.00000000E+00  0.00000000E+00  0.00000000E+00
  0.00000000E+00  0.00000000E+00  0.00000000E+00
  0.00000000E+00  0.00000000E+00  0.00000000E+00
  0.00000000E+00  0.00000000E+00  0.00000000E+00
  0.00000000E+00  0.00000000E+00  0.00000000E+00
  0.00000000E+00  0.00000000E+00  0.00000000E+00
