#166-R-32/m(hexagonalaxes)              
   1.00000000048608     
     4.1131405169249664   -0.0000000000000000    0.0000000000000000
    -2.0565702584624832    3.5620841769920792    0.0000000000000000
    -0.0000000000000000    0.0000000000000000   17.9725059651715995
   Fe   Sb
    18     3
Direct
 -0.0000000000000000  0.0000000000000000  0.2790303403820550
  0.0000000000000000 -0.0000000000000000  0.7209696596179450
  0.3333330000000032  0.6666669999999968  0.9456973403820518
  0.3333330000000032  0.6666669999999968  0.3876366596179418
  0.6666669999999968  0.3333330000000032  0.6123633403820582
  0.6666669999999968  0.3333330000000032  0.0543026596179482
 -0.0000000000000000 -0.0000000000000000  0.1470842415472715
 -0.0000000000000000  0.0000000000000000  0.8529157584527286
  0.3333330000000032  0.6666669999999968  0.8137512415472753
  0.3333330000000032  0.6666669999999968  0.5195827584527254
  0.6666669999999968  0.3333330000000032  0.4804172415472747
  0.6666669999999968  0.3333330000000032  0.1862487584527246
  0.0000000000000000 -0.0000000000000000  0.5685093844334876
 -0.0000000000000000  0.0000000000000000  0.4314906155665124
  0.3333330000000032  0.6666669999999968  0.2351763844334915
  0.3333330000000032  0.6666669999999968  0.0981576155665092
  0.6666669999999968  0.3333330000000032  0.9018423844334909
  0.6666669999999968  0.3333330000000032  0.7648236155665085
 -0.0000000000000000  0.0000000000000000 -0.0000000000000000
  0.3333330000000032  0.6666669999999968  0.6666669999999968
  0.6666669999999968  0.3333330000000032  0.3333330000000032
 
  0.00000000E+00  0.00000000E+00  0.00000000E+00
  0.00000000E+00  0.00000000E+00  0.00000000E+00
  0.00000000E+00  0.00000000E+00  0.00000000E+00
  0.00000000E+00  0.00000000E+00  0.00000000E+00
  0.00000000E+00  0.00000000E+00  0.00000000E+00
  0.00000000E+00  0.00000000E+00  0.00000000E+00
  0.00000000E+00  0.00000000E+00  0.00000000E+00
  0.00000000E+00  0.00000000E+00  0.00000000E+00
  0.00000000E+00  0.00000000E+00  0.00000000E+00
  0.00000000E+00  0.00000000E+00  0.00000000E+00
  0.00000000E+00  0.00000000E+00  0.00000000E+00
  0.00000000E+00  0.00000000E+00  0.00000000E+00
  0.00000000E+00  0.00000000E+00  0.00000000E+00
  0.00000000E+00  0.00000000E+00  0.00000000E+00
  0.00000000E+00  0.00000000E+00  0.00000000E+00
  0.00000000E+00  0.00000000E+00  0.00000000E+00
  0.00000000E+00  0.00000000E+00  0.00000000E+00
  0.00000000E+00  0.00000000E+00  0.00000000E+00
  0.00000000E+00  0.00000000E+00  0.00000000E+00
  0.00000000E+00  0.00000000E+00  0.00000000E+00
  0.00000000E+00  0.00000000E+00  0.00000000E+00
