#187-P-6m2                              
   1.00000000048426     
     4.6841939255560927    0.0000000000000000    0.0000000000000000
    -2.3420969627780464    4.0566309357843293   -0.0000000000000000
    -0.0000000000000000    0.0000000000000000    4.7379100746648524
   Fe   Sb
     6     1
Direct
  0.3333299999999966  0.6666700000000034  0.7522815579268652
  0.3333299999999966  0.6666600000000003  0.2477184420731347
  0.8314873311985452  0.1685126688014547  0.5000000000000000
  0.8314873311985452  0.6629746623970976  0.5000000000000000
  0.3370253376029023  0.1685126688014547  0.5000000000000000
  0.6666700000000034  0.3333299999999966  0.0000000000000000
 -0.0000000000000000 -0.0000000000000000  0.0000000000000000
 
  0.00000000E+00  0.00000000E+00  0.00000000E+00
  0.00000000E+00  0.00000000E+00  0.00000000E+00
  0.00000000E+00  0.00000000E+00  0.00000000E+00
  0.00000000E+00  0.00000000E+00  0.00000000E+00
  0.00000000E+00  0.00000000E+00  0.00000000E+00
  0.00000000E+00  0.00000000E+00  0.00000000E+00
  0.00000000E+00  0.00000000E+00  0.00000000E+00
