#71-I2/m2/m2/m                          
  0.999999999770877     
     2.9694961416863337    0.0000000000000000   -0.0000000000000000
    -0.0000000000000000    3.9163283280373373   -0.0000000000000000
     0.0000000000000000    0.0000000000000000   16.3019709240013242
   Fe   Sb
    12     2
Direct
  0.0000000000000000  0.0000000000000000  0.1324671414216865
 -0.0000000000000000 -0.0000000000000000  0.8675328585783135
  0.5000000000000000  0.5000000000000000  0.6324671414216865
  0.5000000000000000  0.5000000000000000  0.3675328585783136
  0.0000000000000000 -0.0000000000000000  0.6235154137609888
 -0.0000000000000000  0.0000000000000000  0.3764845862390112
  0.5000000000000000  0.5000000000000000  0.1235154137609888
  0.5000000000000000  0.5000000000000000  0.8764845862390112
  0.5000000000000000  0.0000000000000000  0.2509939115895974
  0.5000000000000000 -0.0000000000000000  0.7490060884104025
 -0.0000000000000000  0.5000000000000000  0.7509939115895975
  0.0000000000000000  0.5000000000000000  0.2490060884104026
 -0.0000000000000000  0.5000000000000000  0.5000000000000000
  0.5000000000000000  0.0000000000000000  0.0000000000000000
 
  0.00000000E+00  0.00000000E+00  0.00000000E+00
  0.00000000E+00  0.00000000E+00  0.00000000E+00
  0.00000000E+00  0.00000000E+00  0.00000000E+00
  0.00000000E+00  0.00000000E+00  0.00000000E+00
  0.00000000E+00  0.00000000E+00  0.00000000E+00
  0.00000000E+00  0.00000000E+00  0.00000000E+00
  0.00000000E+00  0.00000000E+00  0.00000000E+00
  0.00000000E+00  0.00000000E+00  0.00000000E+00
  0.00000000E+00  0.00000000E+00  0.00000000E+00
  0.00000000E+00  0.00000000E+00  0.00000000E+00
  0.00000000E+00  0.00000000E+00  0.00000000E+00
  0.00000000E+00  0.00000000E+00  0.00000000E+00
  0.00000000E+00  0.00000000E+00  0.00000000E+00
  0.00000000E+00  0.00000000E+00  0.00000000E+00
