#47-P2/m2/m2/m                          
  0.999999998846310     
     8.1459465619399936    0.0000000000000000    0.0000000000000000
     0.0000000000000000    2.9783082049163601    0.0000000000000000
     0.0000000000000000    0.0000000000000000    3.9048793422287784
   Fe   Sb
     6     1
Direct
  0.7497379513290519  0.5000000000000000 -0.0000000000000000
  0.2502620486709482  0.5000000000000000  0.0000000000000000
  0.7369315721265560 -0.0000000000000000  0.5000000000000000
  0.2630684278734440  0.0000000000000000  0.5000000000000000
  0.5000000000000000 -0.0000000000000000  0.0000000000000000
  0.5000000000000000  0.5000000000000000  0.5000000000000000
 -0.0000000000000000  0.5000000000000000  0.5000000000000000
 
  0.00000000E+00  0.00000000E+00  0.00000000E+00
  0.00000000E+00  0.00000000E+00  0.00000000E+00
  0.00000000E+00  0.00000000E+00  0.00000000E+00
  0.00000000E+00  0.00000000E+00  0.00000000E+00
  0.00000000E+00  0.00000000E+00  0.00000000E+00
  0.00000000E+00  0.00000000E+00  0.00000000E+00
  0.00000000E+00  0.00000000E+00  0.00000000E+00
