#160-R3m(hexagonalaxes)                 
   1.00000000045664     
     4.0076709598844351    0.0000000000000000    0.0000000000000000
    -2.0038354799422176    3.4707448612690874   -0.0000000000000000
     0.0000000000000000   -0.0000000000000000   20.1514108450858735
   Fe   Sb
    18     3
Direct
  0.0000000000000000 -0.0000000000000000  0.3927328502363244
  0.3333330000000032  0.6666669999999968  0.0593998502363212
  0.6666669999999968  0.3333330000000032  0.7260658502363205
  0.0000000000000000 -0.0000000000000000  0.0254982668569467
  0.3333330000000032  0.6666669999999968  0.6921652668569507
  0.6666669999999968  0.3333330000000032  0.3588312668569499
 -0.0000000000000000 -0.0000000000000000  0.5112992468873181
  0.3333330000000032  0.6666669999999968  0.1779662468873220
  0.6666669999999968  0.3333330000000032  0.8446322468873213
 -0.0000000000000000 -0.0000000000000000  0.1457748447498914
  0.3333330000000032  0.6666669999999968  0.8124418447498881
  0.6666669999999968  0.3333330000000032  0.4791078447498876
 -0.0000000000000000  0.0000000000000000  0.8928794088253587
  0.3333330000000032  0.6666669999999968  0.5595464088253554
  0.6666669999999968  0.3333330000000032  0.2262124088253546
  0.0000000000000000  0.0000000000000000  0.7712584239848146
  0.3333330000000032  0.6666669999999968  0.4379254239848114
  0.6666669999999968  0.3333330000000032  0.1045914239848107
 -0.0000000000000000  0.0000000000000000  0.6363469584593553
  0.3333330000000032  0.6666669999999968  0.3030139584593593
  0.6666669999999968  0.3333330000000032  0.9696799584593585
 
  0.00000000E+00  0.00000000E+00  0.00000000E+00
  0.00000000E+00  0.00000000E+00  0.00000000E+00
  0.00000000E+00  0.00000000E+00  0.00000000E+00
  0.00000000E+00  0.00000000E+00  0.00000000E+00
  0.00000000E+00  0.00000000E+00  0.00000000E+00
  0.00000000E+00  0.00000000E+00  0.00000000E+00
  0.00000000E+00  0.00000000E+00  0.00000000E+00
  0.00000000E+00  0.00000000E+00  0.00000000E+00
  0.00000000E+00  0.00000000E+00  0.00000000E+00
  0.00000000E+00  0.00000000E+00  0.00000000E+00
  0.00000000E+00  0.00000000E+00  0.00000000E+00
  0.00000000E+00  0.00000000E+00  0.00000000E+00
  0.00000000E+00  0.00000000E+00  0.00000000E+00
  0.00000000E+00  0.00000000E+00  0.00000000E+00
  0.00000000E+00  0.00000000E+00  0.00000000E+00
  0.00000000E+00  0.00000000E+00  0.00000000E+00
  0.00000000E+00  0.00000000E+00  0.00000000E+00
  0.00000000E+00  0.00000000E+00  0.00000000E+00
  0.00000000E+00  0.00000000E+00  0.00000000E+00
  0.00000000E+00  0.00000000E+00  0.00000000E+00
  0.00000000E+00  0.00000000E+00  0.00000000E+00
