#12-C12/m1                              
  0.999999999286801     
     8.7960815019892316    0.0000000000000000    0.0013292641815782
     0.0000000000000000    4.1243969810594550    0.0000000000000000
    -0.4620815184814748    0.0000000000000000    4.8764184866037974
   Fe   Sb
    12     2
Direct
  0.8532575797970674  0.0000000000000000  0.9417959667792750
  0.1467424202029327  0.0000000000000000  0.0582040332207250
  0.3532575797970673  0.5000000000000000  0.9417959667792750
  0.6467424202029326  0.5000000000000000  0.0582040332207250
  0.4237384559298831  0.0000000000000000  0.1966727655586888
  0.5762615440701169 -0.0000000000000000  0.8033272344413113
  0.9237384559298831  0.5000000000000000  0.1966727655586888
  0.0762615440701169  0.5000000000000000  0.8033272344413113
  0.7056439461889836  0.0000000000000000  0.3533546688782514
  0.2943560538110165 -0.0000000000000000  0.6466453311217486
  0.2056439461889835  0.5000000000000000  0.3533546688782514
  0.7943560538110164  0.5000000000000000  0.6466453311217486
  0.0000000000000000  0.0000000000000000  0.5000000000000000
  0.5000000000000000  0.5000000000000000  0.5000000000000000
 
  0.00000000E+00  0.00000000E+00  0.00000000E+00
  0.00000000E+00  0.00000000E+00  0.00000000E+00
  0.00000000E+00  0.00000000E+00  0.00000000E+00
  0.00000000E+00  0.00000000E+00  0.00000000E+00
  0.00000000E+00  0.00000000E+00  0.00000000E+00
  0.00000000E+00  0.00000000E+00  0.00000000E+00
  0.00000000E+00  0.00000000E+00  0.00000000E+00
  0.00000000E+00  0.00000000E+00  0.00000000E+00
  0.00000000E+00  0.00000000E+00  0.00000000E+00
  0.00000000E+00  0.00000000E+00  0.00000000E+00
  0.00000000E+00  0.00000000E+00  0.00000000E+00
  0.00000000E+00  0.00000000E+00  0.00000000E+00
  0.00000000E+00  0.00000000E+00  0.00000000E+00
  0.00000000E+00  0.00000000E+00  0.00000000E+00
