#12-C12/m1                              
  0.999999999282226     
     8.7985653844004226    0.0000000000000000   -0.0006503807339795
     0.0000000000000000    4.1246396436785986    0.0000000000000000
    -0.4639597198765324    0.0000000000000000    4.8747641709399963
   Fe   Sb
    12     2
Direct
  0.4237578262858404  0.0000000000000000  0.6966763443928491
  0.5762421737141596 -0.0000000000000000  0.3033236556071580
  0.9237578262858404  0.5000000000000000  0.6966763443928491
  0.0762421737141596  0.5000000000000000  0.3033236556071580
  0.1468098706609867  0.0000000000000000  0.5582015077113596
  0.8531901293390134  0.0000000000000000  0.4417984922886404
  0.6468098706609866  0.5000000000000000  0.5582015077113596
  0.3531901293390133  0.5000000000000000  0.4417984922886404
  0.7056540769418131 -0.0000000000000000  0.8534062954292366
  0.2943459230581868  0.0000000000000000  0.1465937045707633
  0.2056540769418132  0.5000000000000000  0.8534062954292366
  0.7943459230581869  0.5000000000000000  0.1465937045707633
 -0.0000000000000000  0.0000000000000000  0.0000000000000000
  0.5000000000000000  0.5000000000000000  0.0000000000000000
 
  0.00000000E+00  0.00000000E+00  0.00000000E+00
  0.00000000E+00  0.00000000E+00  0.00000000E+00
  0.00000000E+00  0.00000000E+00  0.00000000E+00
  0.00000000E+00  0.00000000E+00  0.00000000E+00
  0.00000000E+00  0.00000000E+00  0.00000000E+00
  0.00000000E+00  0.00000000E+00  0.00000000E+00
  0.00000000E+00  0.00000000E+00  0.00000000E+00
  0.00000000E+00  0.00000000E+00  0.00000000E+00
  0.00000000E+00  0.00000000E+00  0.00000000E+00
  0.00000000E+00  0.00000000E+00  0.00000000E+00
  0.00000000E+00  0.00000000E+00  0.00000000E+00
  0.00000000E+00  0.00000000E+00  0.00000000E+00
  0.00000000E+00  0.00000000E+00  0.00000000E+00
  0.00000000E+00  0.00000000E+00  0.00000000E+00
