#12 (C 2/m) [unique axis c] cell choice 
   8.33866999104916     
     0.0968644062659832    0.0000000000000000   -0.7010323449963249
    -0.4998939455218224    0.2158067650499387   -0.0004605935064644
     0.4998939455218224    0.2158067650499387    0.0004605935064644
   Co   Ta
     5     2
Direct
  0.1443723158853748  0.7111889937177553  0.2888110062822448
  0.8556276841146324  0.2888110062822448  0.7111889937177553
  0.4256496662042383  0.1457337242352454  0.8542662757647546
  0.5743503337957617  0.8542662757647546  0.1457337242352454
 -0.0000000000000000 -0.0000000000000000  0.0000000000000000
  0.2693805300738888  0.4225181945499947  0.5774818054500050
  0.7306194699261112  0.5774818054500050  0.4225181945499947
 
  0.00000000E+00  0.00000000E+00  0.00000000E+00
  0.00000000E+00  0.00000000E+00  0.00000000E+00
  0.00000000E+00  0.00000000E+00  0.00000000E+00
  0.00000000E+00  0.00000000E+00  0.00000000E+00
  0.00000000E+00  0.00000000E+00  0.00000000E+00
  0.00000000E+00  0.00000000E+00  0.00000000E+00
  0.00000000E+00  0.00000000E+00  0.00000000E+00
