#12 (C 2/m) [unique axis c] cell choice 
   17.2566300095121     
     0.0279427351233414    0.0000000000000000   -0.2980984937480826
    -0.4994487168680243    0.1140389228660399    0.0000378015505285
     0.4994487168680243    0.1140389228660399   -0.0000378015505285
   Co   Ta
    10     4
Direct
  0.7285890819492552  0.4212443183322850  0.5787556816677221
  0.2714109180507449  0.5787556816677221  0.4212443183322850
  0.0000000000000000 -0.0000000000000000  0.0000000000000000
  0.5000000000000000 -0.0000000000000000  0.0000000000000000
  0.0246953618903424  0.8493910244592313  0.1506089755407687
  0.9753046381096575  0.1506089755407687  0.8493910244592313
  0.2402265597121670  0.2899379086609251  0.7100620913390749
  0.7597734402878330  0.7100620913390749  0.2899379086609251
  0.7867594254533627  0.2856133563053992  0.7143866436946007
  0.2132405745466373  0.7143866436946007  0.2856133563053992
  0.5294936502732848  0.8382879123282094  0.1617120876717906
  0.4705063497267153  0.1617120876717906  0.8382879123282094
  0.2254330934587712  0.4355493685225314  0.5644506314774687
  0.7745669065412287  0.5644506314774687  0.4355493685225314
 
  0.00000000E+00  0.00000000E+00  0.00000000E+00
  0.00000000E+00  0.00000000E+00  0.00000000E+00
  0.00000000E+00  0.00000000E+00  0.00000000E+00
  0.00000000E+00  0.00000000E+00  0.00000000E+00
  0.00000000E+00  0.00000000E+00  0.00000000E+00
  0.00000000E+00  0.00000000E+00  0.00000000E+00
  0.00000000E+00  0.00000000E+00  0.00000000E+00
  0.00000000E+00  0.00000000E+00  0.00000000E+00
  0.00000000E+00  0.00000000E+00  0.00000000E+00
  0.00000000E+00  0.00000000E+00  0.00000000E+00
  0.00000000E+00  0.00000000E+00  0.00000000E+00
  0.00000000E+00  0.00000000E+00  0.00000000E+00
  0.00000000E+00  0.00000000E+00  0.00000000E+00
  0.00000000E+00  0.00000000E+00  0.00000000E+00
