#1 (P 1)                                
   4.67519000129206     
     0.9986938310539160    0.0013860329747264   -0.0009350669783672
    -0.0075524133006725    1.0019690383927842    0.0005451569552608
    -0.4880456701017991   -0.3333008470316595    1.7202718716960208
   Co   Ta
    10     4
Direct
  0.7224387482125243  0.6115723786276382  0.4300636275521216
  0.4105935424391287  0.0753644041144288  0.2927120051171723
  0.5087391681561938  0.7890240691206173  0.0193559572289853
  0.9604207639618318  0.4611834287041697  0.9212690218066476
  0.1087722891115694  0.7157973540604955  0.7279515841995378
  0.8940641315275065  0.0624090145892369  0.2927805999522678
  0.6216209033241880  0.7147376418068310  0.7283488080271143
  0.2598467069532640  0.3927962419853920  0.5153480185397634
  0.5725670445487755  0.3444642225151347  0.1159538574865073
  0.2636678929344720  0.8936716167294360  0.5175048166205565
  0.7959880955019484  0.1602295622340786  0.5877220385545928
  0.1304959932043911  0.5668710602793859  0.2409825033198657
  0.4073831058553464  0.2434063928340713  0.8143982616314311
  0.0020816142688851 -0.0013373876009115  0.0019488999634555
 
  0.00000000E+00  0.00000000E+00  0.00000000E+00
  0.00000000E+00  0.00000000E+00  0.00000000E+00
  0.00000000E+00  0.00000000E+00  0.00000000E+00
  0.00000000E+00  0.00000000E+00  0.00000000E+00
  0.00000000E+00  0.00000000E+00  0.00000000E+00
  0.00000000E+00  0.00000000E+00  0.00000000E+00
  0.00000000E+00  0.00000000E+00  0.00000000E+00
  0.00000000E+00  0.00000000E+00  0.00000000E+00
  0.00000000E+00  0.00000000E+00  0.00000000E+00
  0.00000000E+00  0.00000000E+00  0.00000000E+00
  0.00000000E+00  0.00000000E+00  0.00000000E+00
  0.00000000E+00  0.00000000E+00  0.00000000E+00
  0.00000000E+00  0.00000000E+00  0.00000000E+00
  0.00000000E+00  0.00000000E+00  0.00000000E+00
