#63 (C m c m)                           
   3.90283000020193     
    -0.4988573867676050    2.2462938100683409   -0.0000000000000000
    -0.4988573867676050   -2.2462938100683409    0.0000000000000000
     0.0000000000000000    0.0000000000000000    1.3034658264364996
   Co   Ta
    10     4
Direct
  0.2092168810591541  0.7907831189408459  0.2500000000000000
  0.7907831189408459  0.2092168810591541  0.7500000000000000
  0.6458909113240615  0.3541090886759385  0.5048991642957348
  0.3541090886759385  0.6458909113240615  0.4951008357042652
  0.6458909113240615  0.3541090886759385  0.9951008357042652
  0.3541090886759385  0.6458909113240615  0.0048991642957348
  0.5000000000000000  0.5000000000000000 -0.0000000000000000
  0.5000000000000000  0.5000000000000000  0.5000000000000000
  0.9281121674754190  0.0718878325245810  0.2500000000000000
  0.0718878325245810  0.9281121674754190  0.7500000000000000
  0.7870367080084179  0.2129632919915821  0.2500000000000000
  0.2129632919915821  0.7870367080084179  0.7500000000000000
  0.0700660926391090  0.9299339073608910  0.2500000000000000
  0.9299339073608910  0.0700660926391090  0.7500000000000000
 
  0.00000000E+00  0.00000000E+00  0.00000000E+00
  0.00000000E+00  0.00000000E+00  0.00000000E+00
  0.00000000E+00  0.00000000E+00  0.00000000E+00
  0.00000000E+00  0.00000000E+00  0.00000000E+00
  0.00000000E+00  0.00000000E+00  0.00000000E+00
  0.00000000E+00  0.00000000E+00  0.00000000E+00
  0.00000000E+00  0.00000000E+00  0.00000000E+00
  0.00000000E+00  0.00000000E+00  0.00000000E+00
  0.00000000E+00  0.00000000E+00  0.00000000E+00
  0.00000000E+00  0.00000000E+00  0.00000000E+00
  0.00000000E+00  0.00000000E+00  0.00000000E+00
  0.00000000E+00  0.00000000E+00  0.00000000E+00
  0.00000000E+00  0.00000000E+00  0.00000000E+00
  0.00000000E+00  0.00000000E+00  0.00000000E+00
