#6 (P m) [unique axis c]                
   4.59213999787624     
     0.4391851158049045    0.0000000000000000   -2.0092679020328355
    -0.9951644664678938    0.0000000000000000    0.0013902964633221
     0.0000000000000000    0.9053440167552882    0.0000000000000000
   Co   Ta
    10     4
Direct
  0.4177038891766082  0.9853752903711116  0.5000000000000000
  0.4057306048156066  0.6680866709572257 -0.0000000000000000
  0.2795103968690341  0.0716526399376864 -0.0000000000000000
  0.8569484069442647  0.4168773032143800  0.0000000000000000
  0.8466864549436453  0.7596155657078948  0.5000000000000000
  0.9895503342168896  0.3377749333535612  0.5000000000000000
  0.1351237043397169  0.8617568955165670  0.5000000000000000
  0.5446082589615668  0.2055844091819292  0.0000000000000000
  0.1260783467075459  0.5492302919727320  0.0000000000000000
  0.5406925096881861  0.5518326377127730  0.5000000000000000
  0.2643930206761912  0.4126482201915738  0.5000000000000000
  0.7146117004170464  0.2109078263005036  0.5000000000000000
  0.6781381874778778  0.7457214459960971 -0.0000000000000000
  0.0007441847658117  0.9989958695859804  0.0000000000000000
 
  0.00000000E+00  0.00000000E+00  0.00000000E+00
  0.00000000E+00  0.00000000E+00  0.00000000E+00
  0.00000000E+00  0.00000000E+00  0.00000000E+00
  0.00000000E+00  0.00000000E+00  0.00000000E+00
  0.00000000E+00  0.00000000E+00  0.00000000E+00
  0.00000000E+00  0.00000000E+00  0.00000000E+00
  0.00000000E+00  0.00000000E+00  0.00000000E+00
  0.00000000E+00  0.00000000E+00  0.00000000E+00
  0.00000000E+00  0.00000000E+00  0.00000000E+00
  0.00000000E+00  0.00000000E+00  0.00000000E+00
  0.00000000E+00  0.00000000E+00  0.00000000E+00
  0.00000000E+00  0.00000000E+00  0.00000000E+00
  0.00000000E+00  0.00000000E+00  0.00000000E+00
  0.00000000E+00  0.00000000E+00  0.00000000E+00
