#12 (C 2/m) [unique axis c] cell choice 
   17.1958399909449     
     0.0848412272571857    0.0000000000000000   -0.2846146673446681
    -0.5001099063320138    0.1197923358447536    0.0004644850125364
     0.5001099063320138    0.1197923358447536   -0.0004644850125364
   Co   Ta
    10     4
Direct
  0.2808315252714217  0.2916124665897437  0.7083875334102564
  0.7191684747285783  0.7083875334102564  0.2916124665897437
  0.7992492048287619  0.2915298748438965  0.7084701251561037
  0.2007507951712381  0.7084701251561037  0.2915298748438965
  0.0846277539548842  0.8370439461013479  0.1629560538986520
  0.9153722460451158  0.1629560538986520  0.8370439461013479
  0.5000000000000000 -0.0000000000000000  0.0000000000000000
  0.3273770918725445  0.5708056591921605  0.4291943408078396
  0.6726229081274556  0.4291943408078396  0.5708056591921605
 -0.0000000000000000 -0.0000000000000000  0.0000000000000000
  0.5934305030970766  0.8464913726773128  0.1535086273226872
  0.4065694969029234  0.1535086273226872  0.8464913726773128
  0.1681634667515232  0.4264077225886727  0.5735922774113272
  0.8318365332484771  0.5735922774113272  0.4264077225886727
 
  0.00000000E+00  0.00000000E+00  0.00000000E+00
  0.00000000E+00  0.00000000E+00  0.00000000E+00
  0.00000000E+00  0.00000000E+00  0.00000000E+00
  0.00000000E+00  0.00000000E+00  0.00000000E+00
  0.00000000E+00  0.00000000E+00  0.00000000E+00
  0.00000000E+00  0.00000000E+00  0.00000000E+00
  0.00000000E+00  0.00000000E+00  0.00000000E+00
  0.00000000E+00  0.00000000E+00  0.00000000E+00
  0.00000000E+00  0.00000000E+00  0.00000000E+00
  0.00000000E+00  0.00000000E+00  0.00000000E+00
  0.00000000E+00  0.00000000E+00  0.00000000E+00
  0.00000000E+00  0.00000000E+00  0.00000000E+00
  0.00000000E+00  0.00000000E+00  0.00000000E+00
  0.00000000E+00  0.00000000E+00  0.00000000E+00
