#25 (P m m 2)                           
   3.57778999799990     
     0.9952552728420792    0.0000000000000000    0.0000000000000000
     0.0000000000000000    1.0067141705614804    0.0000000000000000
     0.0000000000000000    0.0000000000000000    3.8485319723061306
   Co   Ta
    10     4
Direct
  0.5000000000000000  0.5000000000000000  0.7323685097003149
  0.5000000000000000 -0.0000000000000000  0.5965311196331667
  0.0000000000000000  0.5000000000000000  0.8678273727350700
  0.0000000000000000  0.5000000000000000  0.3808628934703435
  0.0000000000000000  0.0000000000000000  0.2613530616085242
 -0.0000000000000000  0.5000000000000000  0.1412620751822351
  0.5000000000000000  0.5000000000000000  0.0026187065495141
  0.5000000000000000  0.0000000000000000  0.8679801668722469
  0.5000000000000000  0.5000000000000000  0.2604009897068607
  0.5000000000000000  0.0000000000000000  0.1416173962742516
  0.5000000000000000  0.0000000000000000  0.4155845691219598
 -0.0000000000000000  0.0000000000000000  0.7365845175624853
  0.0000000000000000  0.5000000000000000  0.5573593934556278
 -0.0000000000000000  0.0000000000000000  0.9999992281274070
 
  0.00000000E+00  0.00000000E+00  0.00000000E+00
  0.00000000E+00  0.00000000E+00  0.00000000E+00
  0.00000000E+00  0.00000000E+00  0.00000000E+00
  0.00000000E+00  0.00000000E+00  0.00000000E+00
  0.00000000E+00  0.00000000E+00  0.00000000E+00
  0.00000000E+00  0.00000000E+00  0.00000000E+00
  0.00000000E+00  0.00000000E+00  0.00000000E+00
  0.00000000E+00  0.00000000E+00  0.00000000E+00
  0.00000000E+00  0.00000000E+00  0.00000000E+00
  0.00000000E+00  0.00000000E+00  0.00000000E+00
  0.00000000E+00  0.00000000E+00  0.00000000E+00
  0.00000000E+00  0.00000000E+00  0.00000000E+00
  0.00000000E+00  0.00000000E+00  0.00000000E+00
  0.00000000E+00  0.00000000E+00  0.00000000E+00
