#11 (P 21/m) [unique axis c]            
   4.60907000418111     
     0.4896097691649020    0.0000000000000000   -1.9759745743954906
    -0.9988223495666144    0.0000000000000000    0.0002701556425265
     0.0000000000000000    0.9020256000735284    0.0000000000000000
   Co   Ta
    10     4
Direct
  0.7807582642820922  0.2945817691515927  0.2500000000000000
  0.2192417357179077  0.7054182308484073  0.7500000000000000
  0.2117614089260378  0.0019164965022183  0.2500000000000000
  0.7882385910739622  0.9980835034977817  0.7500000000000000
  0.3657280833522544  0.6270530907093365  0.2500000000000000
  0.6342719166477527  0.3729469092906635  0.7500000000000000
  0.5001128337311567  0.1574544834991997  0.2500000000000000
  0.4998871662688434  0.8425455165008002  0.7500000000000000
  0.9292206093496347  0.8982255991514034  0.2500000000000000
  0.0707793906503653  0.1017744008485966  0.7500000000000000
  0.6466769050260610  0.7243539189546209  0.2500000000000000
  0.3533230949739461  0.2756460810453792  0.7500000000000000
  0.0936800036407776  0.4303663832320780  0.2500000000000000
  0.9063199963592223  0.5696336167679220  0.7500000000000000
 
  0.00000000E+00  0.00000000E+00  0.00000000E+00
  0.00000000E+00  0.00000000E+00  0.00000000E+00
  0.00000000E+00  0.00000000E+00  0.00000000E+00
  0.00000000E+00  0.00000000E+00  0.00000000E+00
  0.00000000E+00  0.00000000E+00  0.00000000E+00
  0.00000000E+00  0.00000000E+00  0.00000000E+00
  0.00000000E+00  0.00000000E+00  0.00000000E+00
  0.00000000E+00  0.00000000E+00  0.00000000E+00
  0.00000000E+00  0.00000000E+00  0.00000000E+00
  0.00000000E+00  0.00000000E+00  0.00000000E+00
  0.00000000E+00  0.00000000E+00  0.00000000E+00
  0.00000000E+00  0.00000000E+00  0.00000000E+00
  0.00000000E+00  0.00000000E+00  0.00000000E+00
  0.00000000E+00  0.00000000E+00  0.00000000E+00
