#12 (C 2/m) [unique axis c] cell choice 
   10.3818899916404     
     0.1054403236283731    0.0000000000000000   -0.4377610385487183
    -0.4986067492818179    0.3577754235732034   -0.0000081369131787
     0.4986067492818179    0.3577754235732034    0.0000081369131787
   Co   Ta
    10     4
Direct
  0.3692630221110672  0.7209116726296391  0.2790883273703609
  0.6307369778889328  0.2790883273703609  0.7209116726296391
  0.1456905613643001  0.8988181279974264  0.1011818720025735
  0.8543094386356999  0.1011818720025735  0.8988181279974264
  0.1679635986241172  0.1635068168509460  0.5106863422003121
  0.8320364013758828  0.5106863422003121  0.1635068168509460
  0.8320364013758828  0.8364931831490540  0.4893136577996879
  0.1679635986241172  0.4893136577996879  0.8364931831490540
 -0.0000000000000000  0.5000000000000000  0.5000000000000000
  0.5000000000000000  0.5000000000000000  0.5000000000000000
  0.6912870001425434  0.1070368046502375  0.3017287178708322
  0.3087129998574566  0.3017287178708322  0.1070368046502375
  0.3087129998574566  0.8929631953497625  0.6982712821291678
  0.6912870001425434  0.6982712821291678  0.8929631953497625
 
  0.00000000E+00  0.00000000E+00  0.00000000E+00
  0.00000000E+00  0.00000000E+00  0.00000000E+00
  0.00000000E+00  0.00000000E+00  0.00000000E+00
  0.00000000E+00  0.00000000E+00  0.00000000E+00
  0.00000000E+00  0.00000000E+00  0.00000000E+00
  0.00000000E+00  0.00000000E+00  0.00000000E+00
  0.00000000E+00  0.00000000E+00  0.00000000E+00
  0.00000000E+00  0.00000000E+00  0.00000000E+00
  0.00000000E+00  0.00000000E+00  0.00000000E+00
  0.00000000E+00  0.00000000E+00  0.00000000E+00
  0.00000000E+00  0.00000000E+00  0.00000000E+00
  0.00000000E+00  0.00000000E+00  0.00000000E+00
  0.00000000E+00  0.00000000E+00  0.00000000E+00
  0.00000000E+00  0.00000000E+00  0.00000000E+00
