#44-Imm2                                
   1.00000000022420     
     3.6139810338790754    0.0000000000000000    0.0000000000000000
     0.0000000000000000    3.5513349248304924    0.0000000000000000
     0.0000000000000000    0.0000000000000000   27.5280502047550435
   Co   Ta
    20     8
Direct
 -0.0000000000000000  0.0000000000000000  0.2685126116255236
  0.5000000000000000  0.5000000000000000  0.7685126116255236
  0.0000000000000000 -0.0000000000000000  0.5121184398323271
  0.5000000000000000  0.5000000000000000  0.0121184398323270
  0.0000000000000000  0.0000000000000000  0.6318674327966480
  0.5000000000000000  0.5000000000000000  0.1318674327966481
 -0.0000000000000000  0.5000000000000000  0.3363695456587218
  0.5000000000000000  0.0000000000000000  0.8363695456587219
  0.0000000000000000 -0.0000000000000000  0.1317929620430215
  0.5000000000000000  0.5000000000000000  0.6317929620430215
  0.0000000000000000  0.0000000000000000  0.9041857815091077
  0.5000000000000000  0.5000000000000000  0.4041857815091077
  0.0000000000000000  0.5000000000000000  0.5723289281874563
  0.5000000000000000 -0.0000000000000000  0.0723289281874563
 -0.0000000000000000  0.5000000000000000  0.0718454792966323
  0.5000000000000000 -0.0000000000000000  0.5718454792966323
  0.0000000000000000  0.0000000000000000  0.7684791852714756
  0.5000000000000000  0.5000000000000000  0.2684791852714757
 -0.0000000000000000  0.5000000000000000  0.2011557989697731
  0.5000000000000000  0.0000000000000000  0.7011557989697731
  0.0000000000000000  0.5000000000000000  0.7024944078276626
  0.5000000000000000 -0.0000000000000000  0.2024944078276626
  0.0000000000000000  0.0000000000000000  0.4237680049643286
  0.5000000000000000  0.5000000000000000  0.9237680049643286
 -0.0000000000000000 -0.0000000000000000  0.9947201049911824
  0.5000000000000000  0.5000000000000000  0.4947201049911824
  0.0000000000000000  0.5000000000000000  0.8341313170261507
  0.5000000000000000 -0.0000000000000000  0.3341313170261507
 
  0.00000000E+00  0.00000000E+00  0.00000000E+00
  0.00000000E+00  0.00000000E+00  0.00000000E+00
  0.00000000E+00  0.00000000E+00  0.00000000E+00
  0.00000000E+00  0.00000000E+00  0.00000000E+00
  0.00000000E+00  0.00000000E+00  0.00000000E+00
  0.00000000E+00  0.00000000E+00  0.00000000E+00
  0.00000000E+00  0.00000000E+00  0.00000000E+00
  0.00000000E+00  0.00000000E+00  0.00000000E+00
  0.00000000E+00  0.00000000E+00  0.00000000E+00
  0.00000000E+00  0.00000000E+00  0.00000000E+00
  0.00000000E+00  0.00000000E+00  0.00000000E+00
  0.00000000E+00  0.00000000E+00  0.00000000E+00
  0.00000000E+00  0.00000000E+00  0.00000000E+00
  0.00000000E+00  0.00000000E+00  0.00000000E+00
  0.00000000E+00  0.00000000E+00  0.00000000E+00
  0.00000000E+00  0.00000000E+00  0.00000000E+00
  0.00000000E+00  0.00000000E+00  0.00000000E+00
  0.00000000E+00  0.00000000E+00  0.00000000E+00
  0.00000000E+00  0.00000000E+00  0.00000000E+00
  0.00000000E+00  0.00000000E+00  0.00000000E+00
  0.00000000E+00  0.00000000E+00  0.00000000E+00
  0.00000000E+00  0.00000000E+00  0.00000000E+00
  0.00000000E+00  0.00000000E+00  0.00000000E+00
  0.00000000E+00  0.00000000E+00  0.00000000E+00
  0.00000000E+00  0.00000000E+00  0.00000000E+00
  0.00000000E+00  0.00000000E+00  0.00000000E+00
  0.00000000E+00  0.00000000E+00  0.00000000E+00
  0.00000000E+00  0.00000000E+00  0.00000000E+00
