#12 (C 2/m) [unique axis c] cell choice 
  0.999999999274669     
     9.2859715135138394    0.0088895431530101   -0.0066918703025537
    -1.7780095059847647    4.7863863046725088   -0.0071863095723413
     1.7780095059847874   -1.3307569008086928    4.5976767580384452
   Fe   Ta
    12     4
Direct
  0.8739374885224244  0.5691390578341775  0.4308609721658250
  0.1262983076547206  0.4308797312477225  0.5691202987522728
  0.8747916711265779  0.5699903432812455  0.9158232915942810
  0.1254370566295643  0.9158611860074909  0.5699786719744692
  0.1254370566295643  0.4300212980255284  0.0841388289925066
  0.8747916711265779  0.0841767234057167  0.4300096267187519
  0.3765179481169674  0.8092715757733996  0.1907284382266016
  0.6236734537803190  0.1906994396661357  0.8093005743338657
  0.6251096061546759  0.6924752187921364  0.8075318238842313
  0.3750945702729389  0.8075022041274218  0.6924890153473158
  0.3750945702729389  0.3075109546526888  0.1924978108725760
  0.6251096061546759  0.1924681911157664  0.3075247812078636
  0.8765959234348554  0.0778686428225564  0.9221313801774419
  0.1236157115411240  0.9221407527146939  0.0778592702853044
  0.3739521974381776  0.3074807661453519  0.6925192338546481
  0.6262632201439053  0.6924839703879627  0.3075160296120373
 
  0.00000000E+00  0.00000000E+00  0.00000000E+00
  0.00000000E+00  0.00000000E+00  0.00000000E+00
  0.00000000E+00  0.00000000E+00  0.00000000E+00
  0.00000000E+00  0.00000000E+00  0.00000000E+00
  0.00000000E+00  0.00000000E+00  0.00000000E+00
  0.00000000E+00  0.00000000E+00  0.00000000E+00
  0.00000000E+00  0.00000000E+00  0.00000000E+00
  0.00000000E+00  0.00000000E+00  0.00000000E+00
  0.00000000E+00  0.00000000E+00  0.00000000E+00
  0.00000000E+00  0.00000000E+00  0.00000000E+00
  0.00000000E+00  0.00000000E+00  0.00000000E+00
  0.00000000E+00  0.00000000E+00  0.00000000E+00
  0.00000000E+00  0.00000000E+00  0.00000000E+00
  0.00000000E+00  0.00000000E+00  0.00000000E+00
  0.00000000E+00  0.00000000E+00  0.00000000E+00
  0.00000000E+00  0.00000000E+00  0.00000000E+00
