#187 (P -6 m 2)                         
   4.85128999781879     
     0.9882661653446561   -0.0000054564013815    0.0000000000000000
    -0.4941378080523485    0.8558604870947891    0.0000000000000000
     0.0000000000000000    0.0000000000000000    2.0979096242540924
   Fe   Ta
    12     4
Direct
  0.5009184659995307  0.4990915340004513  0.6166245328855997
  0.5009187849228813  0.0018378648880476  0.6166241875296717
  0.9981721351119697  0.4990912150771218  0.6166241875296717
  0.5009187849228813  0.0018378648880476  0.3833758124703282
  0.9981721351119697  0.4990912150771218  0.3833758124703282
  0.5009184659995307  0.4990915340004513  0.3833754671144003
  0.1644944555179153  0.8355155444820026  0.0000000000000000
  0.1644987480248604  0.3289952473002750  0.0000000000000000
  0.6710147526998134  0.8355112519751428  0.0000000000000000
  0.3333397774361885  0.6666702225638147  0.8107982753697416
  0.3333397774361885  0.6666802225638108  0.1892017246302584
  0.9999994545263700  0.0000005454736300  0.5000000000000000
  0.6666727822122872  0.3333372177877159  0.1432439982723414
  0.6666727822122872  0.3333372177877159  0.8567560017276585
  0.9999993489326637  0.0000006510673363  0.2476996866890886
  0.9999993489326637  0.0000006510673363  0.7523003133109114
 
  0.00000000E+00  0.00000000E+00  0.00000000E+00
  0.00000000E+00  0.00000000E+00  0.00000000E+00
  0.00000000E+00  0.00000000E+00  0.00000000E+00
  0.00000000E+00  0.00000000E+00  0.00000000E+00
  0.00000000E+00  0.00000000E+00  0.00000000E+00
  0.00000000E+00  0.00000000E+00  0.00000000E+00
  0.00000000E+00  0.00000000E+00  0.00000000E+00
  0.00000000E+00  0.00000000E+00  0.00000000E+00
  0.00000000E+00  0.00000000E+00  0.00000000E+00
  0.00000000E+00  0.00000000E+00  0.00000000E+00
  0.00000000E+00  0.00000000E+00  0.00000000E+00
  0.00000000E+00  0.00000000E+00  0.00000000E+00
  0.00000000E+00  0.00000000E+00  0.00000000E+00
  0.00000000E+00  0.00000000E+00  0.00000000E+00
  0.00000000E+00  0.00000000E+00  0.00000000E+00
  0.00000000E+00  0.00000000E+00  0.00000000E+00
