#65 (C m m m)                           
   11.8746999943370     
     0.4990424017867270   -0.2525073310877889    0.0000000000000000
    -0.4990424017867270   -0.2525073310877889    0.0000000000000000
     0.0000000000000000    0.0000000000000000   -0.4850383588055149
   Fe   Ta
    12     4
Direct
  0.3815761649728083  0.1288003488556264  0.7582560101466266
  0.8711996511443736  0.6184238350271987  0.2417439898533734
  0.1288003488556264  0.3815761649728083  0.2417439898533734
  0.6184238350271987  0.8711996511443736  0.7582560101466266
  0.6184238350271987  0.8711996511443736  0.2417439898533734
  0.1288003488556264  0.3815761649728083  0.7582560101466266
  0.8711996511443736  0.6184238350271987  0.7582560101466266
  0.3815761649728083  0.1288003488556264  0.2417439898533734
  0.5000000000000000  0.5000000000000000  0.0000000000000000
  0.0000000000000000 -0.0000000000000000  0.5000000000000000
  0.7496222615379465  0.2503777384620535 -0.0000000000000000
  0.2503777384620535  0.7496222615379465 -0.0000000000000000
  0.7565848851575186  0.2434151148424814  0.5000000000000000
  0.2434151148424814  0.7565848851575186  0.5000000000000000
  0.5000000000000000  0.5000000000000000  0.5000000000000000
  0.0000000000000000 -0.0000000000000000  0.0000000000000000
 
  0.00000000E+00  0.00000000E+00  0.00000000E+00
  0.00000000E+00  0.00000000E+00  0.00000000E+00
  0.00000000E+00  0.00000000E+00  0.00000000E+00
  0.00000000E+00  0.00000000E+00  0.00000000E+00
  0.00000000E+00  0.00000000E+00  0.00000000E+00
  0.00000000E+00  0.00000000E+00  0.00000000E+00
  0.00000000E+00  0.00000000E+00  0.00000000E+00
  0.00000000E+00  0.00000000E+00  0.00000000E+00
  0.00000000E+00  0.00000000E+00  0.00000000E+00
  0.00000000E+00  0.00000000E+00  0.00000000E+00
  0.00000000E+00  0.00000000E+00  0.00000000E+00
  0.00000000E+00  0.00000000E+00  0.00000000E+00
  0.00000000E+00  0.00000000E+00  0.00000000E+00
  0.00000000E+00  0.00000000E+00  0.00000000E+00
  0.00000000E+00  0.00000000E+00  0.00000000E+00
  0.00000000E+00  0.00000000E+00  0.00000000E+00
