#8 (C m) [unique axis c] cell choice 1  
   8.31479000095742     
     0.0223790467677286    0.0000000000000000   -0.9977379988848818
    -0.4990850428643941    0.3586262898771037    0.0002508302262816
     0.4990850428643941    0.3586262898771037   -0.0002508302262816
   Fe   Ta
    12     4
Direct
  0.7585650913888087  0.2531950465499183  0.2613694316464787
  0.7585650913888087  0.7386305683535213  0.7468049534500818
  0.0007627204993324  0.4948934513142751  0.5051065486857248
  0.2514171170200067  0.2412711292399128  0.7587288707600873
  0.7557725594133250  0.2456836487448461  0.7543163512551539
  0.7559331371052327  0.7453613512425068  0.2546386487574930
  0.2524501648434118  0.7351251593094337  0.7608197185956935
  0.2524501648434118  0.2391802814043064  0.2648748406905663
  0.9972216717211405  0.4962562114549358  0.9980202593517836
  0.9972216717211405  0.0019797406482163  0.5037437885450643
  0.5070871309937790  0.9849692819172117  0.5033114009699969
  0.5070871309937790  0.4966885990300030  0.0150307180827884
  0.5088036317925709  0.4845859890200987  0.5154140109799014
  0.5104979943523895  0.9979219995554857  0.0020780004445144
  0.2467633646175960  0.7351871635748490  0.2648128364251510
  0.0000413573052733  0.0001003786404730 -0.0001003786404730
 
  0.00000000E+00  0.00000000E+00  0.00000000E+00
  0.00000000E+00  0.00000000E+00  0.00000000E+00
  0.00000000E+00  0.00000000E+00  0.00000000E+00
  0.00000000E+00  0.00000000E+00  0.00000000E+00
  0.00000000E+00  0.00000000E+00  0.00000000E+00
  0.00000000E+00  0.00000000E+00  0.00000000E+00
  0.00000000E+00  0.00000000E+00  0.00000000E+00
  0.00000000E+00  0.00000000E+00  0.00000000E+00
  0.00000000E+00  0.00000000E+00  0.00000000E+00
  0.00000000E+00  0.00000000E+00  0.00000000E+00
  0.00000000E+00  0.00000000E+00  0.00000000E+00
  0.00000000E+00  0.00000000E+00  0.00000000E+00
  0.00000000E+00  0.00000000E+00  0.00000000E+00
  0.00000000E+00  0.00000000E+00  0.00000000E+00
  0.00000000E+00  0.00000000E+00  0.00000000E+00
  0.00000000E+00  0.00000000E+00  0.00000000E+00
