#1 (P 1)                                
   4.66148999931889     
     0.9982384681838102    0.0016276580475597    0.0024339007931882
     0.0200387638498338    1.0254566046461948   -0.0003664421197852
     0.0769135240965692    0.1201376069266982    1.9540281165740787
   Fe   Ta
    12     4
Direct
  0.9811368049582495  0.7248077906564065  0.4602745421426876
  0.7148705583010451  0.4577671299342373  0.6487188230288434
  0.7378825600939590  0.9990515106522886  0.2756782027918182
  0.2154115503322026  0.4485566571768406  0.6487393029081726
  0.9792864261280070  0.2253108223125321  0.4614365944531837
  0.2451990442018162  0.9936241297635904  0.2712619439289118
  0.4217434606965368  0.6650828480647369  0.8468872440455242
  0.9274863112988017  0.4822174689140647  0.8910222564464479
  0.4741140902225336  0.1528720206040335  0.8406654337179341
  0.5214014646668156  0.7709595619530299  0.0824458269790694
  0.5015129292811022  0.2924198136263237  0.0801728334260086
  0.9631132094477516  0.9541334044021009  0.7194908731414578
  0.4706117244805361  0.9588722082350338  0.5671233815384307
  0.4885213793222294  0.4852118195235197  0.3710258451490289
  0.0038135057985308  0.4930455087089218  0.1845381429547279
  0.0023249807698730  0.0016773054723451  0.9993287533477465
 
  0.00000000E+00  0.00000000E+00  0.00000000E+00
  0.00000000E+00  0.00000000E+00  0.00000000E+00
  0.00000000E+00  0.00000000E+00  0.00000000E+00
  0.00000000E+00  0.00000000E+00  0.00000000E+00
  0.00000000E+00  0.00000000E+00  0.00000000E+00
  0.00000000E+00  0.00000000E+00  0.00000000E+00
  0.00000000E+00  0.00000000E+00  0.00000000E+00
  0.00000000E+00  0.00000000E+00  0.00000000E+00
  0.00000000E+00  0.00000000E+00  0.00000000E+00
  0.00000000E+00  0.00000000E+00  0.00000000E+00
  0.00000000E+00  0.00000000E+00  0.00000000E+00
  0.00000000E+00  0.00000000E+00  0.00000000E+00
  0.00000000E+00  0.00000000E+00  0.00000000E+00
  0.00000000E+00  0.00000000E+00  0.00000000E+00
  0.00000000E+00  0.00000000E+00  0.00000000E+00
  0.00000000E+00  0.00000000E+00  0.00000000E+00
