#136 (P 42/m n m)                       
   8.28755000027529     
     0.9990430558755821   -0.0000000000000000    0.0000000000000000
    -0.0000000000000000    0.9990430558755821    0.0000000000000000
     0.0000000000000000    0.0000000000000000    0.3657146771744015
   Fe   Ta
    12     4
Direct
  0.8870281101667202  0.3740068552986739 -0.0000000000000000
  0.3870281101667203  0.1259931447013261  0.5000000000000000
  0.6129718898332798  0.8740068552986741  0.5000000000000000
  0.1129718898332797  0.6259931447013259  0.0000000000000000
  0.6259931447013259  0.1129718898332797  0.0000000000000000
  0.1259931447013261  0.3870281101667203  0.5000000000000000
  0.8740068552986741  0.6129718898332798  0.5000000000000000
  0.3740068552986739  0.8870281101667202 -0.0000000000000000
  0.3734769677222316  0.3734769677222316 -0.0000000000000000
  0.8734769677222317  0.1265230322777683  0.5000000000000000
  0.1265230322777683  0.8734769677222317  0.5000000000000000
  0.6265230322777683  0.6265230322777683  0.0000000000000000
  0.1307187592811120  0.1307187592811120 -0.0000000000000000
  0.6307187592811122  0.3692812407188880  0.5000000000000000
  0.3692812407188880  0.6307187592811122  0.5000000000000000
  0.8692812407188878  0.8692812407188878 -0.0000000000000000
 
  0.00000000E+00  0.00000000E+00  0.00000000E+00
  0.00000000E+00  0.00000000E+00  0.00000000E+00
  0.00000000E+00  0.00000000E+00  0.00000000E+00
  0.00000000E+00  0.00000000E+00  0.00000000E+00
  0.00000000E+00  0.00000000E+00  0.00000000E+00
  0.00000000E+00  0.00000000E+00  0.00000000E+00
  0.00000000E+00  0.00000000E+00  0.00000000E+00
  0.00000000E+00  0.00000000E+00  0.00000000E+00
  0.00000000E+00  0.00000000E+00  0.00000000E+00
  0.00000000E+00  0.00000000E+00  0.00000000E+00
  0.00000000E+00  0.00000000E+00  0.00000000E+00
  0.00000000E+00  0.00000000E+00  0.00000000E+00
  0.00000000E+00  0.00000000E+00  0.00000000E+00
  0.00000000E+00  0.00000000E+00  0.00000000E+00
  0.00000000E+00  0.00000000E+00  0.00000000E+00
  0.00000000E+00  0.00000000E+00  0.00000000E+00
