#8 (C m) [unique axis c] cell choice 1  
   8.30757000010789     
     0.2886413619105445    0.0000000000000000   -1.2355821579052348
    -0.4990776993210377    0.2880606000281886   -0.0008971043229759
     0.4990776993210377    0.2880606000281886    0.0008971043229759
   Fe   Ta
    12     4
Direct
  0.3402840771985917  0.7662119167524200  0.2337880832475800
  0.7698662599867576  0.1042329821621345  0.8957670178378656
  0.5323402046185958  0.9845033811866650  0.0154966188133350
  0.1487205199561457  0.0426516781398364  0.4555910475035038
  0.1487205199561457  0.5444089524964965  0.9573483218601636
  0.5300501773895605  0.4816802252381106  0.0023402621315494
  0.5300501773895605  0.9976597378684506  0.5183197747618895
  0.1488389125578393  0.5444296760545043  0.4555703239454957
  0.9598985794040858  0.3219855470385878  0.6780144529614121
  0.7720715402900648  0.6065729865151630  0.9096280087649794
  0.7720715402900648  0.0903719912350205  0.3934270134848372
  0.9220603287433746  0.6450716925733528  0.3549283074266471
  0.6611191061571572  0.5500168865115834  0.4499831134884166
  0.3827325423111875  0.4444860875611545  0.5555139124388455
  0.2893683251833850  0.0842223344842919  0.9157776655157082
  0.0000371885675081  0.0009939241822553  0.9990060758177518
 
  0.00000000E+00  0.00000000E+00  0.00000000E+00
  0.00000000E+00  0.00000000E+00  0.00000000E+00
  0.00000000E+00  0.00000000E+00  0.00000000E+00
  0.00000000E+00  0.00000000E+00  0.00000000E+00
  0.00000000E+00  0.00000000E+00  0.00000000E+00
  0.00000000E+00  0.00000000E+00  0.00000000E+00
  0.00000000E+00  0.00000000E+00  0.00000000E+00
  0.00000000E+00  0.00000000E+00  0.00000000E+00
  0.00000000E+00  0.00000000E+00  0.00000000E+00
  0.00000000E+00  0.00000000E+00  0.00000000E+00
  0.00000000E+00  0.00000000E+00  0.00000000E+00
  0.00000000E+00  0.00000000E+00  0.00000000E+00
  0.00000000E+00  0.00000000E+00  0.00000000E+00
  0.00000000E+00  0.00000000E+00  0.00000000E+00
  0.00000000E+00  0.00000000E+00  0.00000000E+00
  0.00000000E+00  0.00000000E+00  0.00000000E+00
