#11 (P 21/m) [unique axis c]            
   4.88532999687147     
     0.1517720920997392    0.0000000000000000   -1.0311703489796786
    -0.9969720835912516    0.0000000000000000    0.0006517539423740
     0.0000000000000000    0.8644192878802994    0.0000000000000000
   Fe   Ta
     6     2
Direct
  0.4473554543359536  0.6337796653152684  0.2500000000000000
  0.5526445456640464  0.3662203346847316  0.7500000000000000
  0.6976117895468208  0.1379805715767126  0.2500000000000000
  0.3023882104531792  0.8620194284232874  0.7500000000000000
  0.9413564519499068  0.6174862830044380  0.2500000000000000
  0.0586435480500931  0.3825137169955621  0.7500000000000000
  0.2012682666730558  0.1303770764293448  0.2500000000000000
  0.7987317333269441  0.8696229235706552  0.7500000000000000
 
  0.00000000E+00  0.00000000E+00  0.00000000E+00
  0.00000000E+00  0.00000000E+00  0.00000000E+00
  0.00000000E+00  0.00000000E+00  0.00000000E+00
  0.00000000E+00  0.00000000E+00  0.00000000E+00
  0.00000000E+00  0.00000000E+00  0.00000000E+00
  0.00000000E+00  0.00000000E+00  0.00000000E+00
  0.00000000E+00  0.00000000E+00  0.00000000E+00
  0.00000000E+00  0.00000000E+00  0.00000000E+00
