#123 (P 4/m m m)                        
   5.98880000075620     
     0.9974482244205580    0.0000000000000000    0.0000000000000000
     0.0000000000000000    0.9974482244205580    0.0000000000000000
     0.0000000000000000    0.0000000000000000    0.9606345135044490
   Fe   Ta
    12     4
Direct
  0.2475353034607820  0.2475353034607820  0.2573919529317373
  0.2475353034607820  0.7524646965392179  0.7426080470682627
  0.7524646965392179  0.2475353034607820  0.7426080470682627
  0.7524646965392179  0.7524646965392179  0.2573919529317373
  0.7524646965392179  0.7524646965392179  0.7426080470682627
  0.7524646965392179  0.2475353034607820  0.2573919529317373
  0.2475353034607820  0.7524646965392179  0.2573919529317373
  0.2475353034607820  0.2475353034607820  0.7426080470682627
  0.0000000000000000  0.5000000000000000  0.5000000000000000
  0.5000000000000000  0.0000000000000000  0.5000000000000000
  0.0000000000000000  0.0000000000000000  0.5000000000000000
  0.5000000000000000  0.5000000000000000  0.0000000000000000
  0.0000000000000000  0.5000000000000000  0.0000000000000000
  0.5000000000000000  0.0000000000000000  0.0000000000000000
  0.5000000000000000  0.5000000000000000  0.5000000000000000
  0.0000000000000000  0.0000000000000000  0.0000000000000000
 
  0.00000000E+00  0.00000000E+00  0.00000000E+00
  0.00000000E+00  0.00000000E+00  0.00000000E+00
  0.00000000E+00  0.00000000E+00  0.00000000E+00
  0.00000000E+00  0.00000000E+00  0.00000000E+00
  0.00000000E+00  0.00000000E+00  0.00000000E+00
  0.00000000E+00  0.00000000E+00  0.00000000E+00
  0.00000000E+00  0.00000000E+00  0.00000000E+00
  0.00000000E+00  0.00000000E+00  0.00000000E+00
  0.00000000E+00  0.00000000E+00  0.00000000E+00
  0.00000000E+00  0.00000000E+00  0.00000000E+00
  0.00000000E+00  0.00000000E+00  0.00000000E+00
  0.00000000E+00  0.00000000E+00  0.00000000E+00
  0.00000000E+00  0.00000000E+00  0.00000000E+00
  0.00000000E+00  0.00000000E+00  0.00000000E+00
  0.00000000E+00  0.00000000E+00  0.00000000E+00
  0.00000000E+00  0.00000000E+00  0.00000000E+00
