#6 (P m) [unique axis c]                
   2.94776000480969     
    -0.1103276217279995    0.0000000000000000    2.8754714843578073
     1.0005185722501502    0.0000000000000000   -0.0014236060693314
     0.0000000000000000    1.2750116008701953    0.0000000000000000
   Fe   N 
     6     3
Direct
  0.4659644653147217  0.9174299321341665  0.0000000000000000
  0.6679788380753168  0.7210337226622249  0.5000000000000000
  0.7986860512589429  0.2365147234374205  0.0000000000000000
  0.3371853774301849  0.3997186659697433  0.5000000000000000
  0.1265113251667655  0.5254503121224359 -0.0000000000000000
  0.9992015155438705  0.0093536012111426  0.5000000000000000
  0.6713389070927570  0.7328665288949577 -0.0000000000000000
  0.3395739750569441  0.4130869420807893 -0.0000000000000000
  0.0009795450604987  0.0201255714871201  0.0000000000000000
 
  0.00000000E+00  0.00000000E+00  0.00000000E+00
  0.00000000E+00  0.00000000E+00  0.00000000E+00
  0.00000000E+00  0.00000000E+00  0.00000000E+00
  0.00000000E+00  0.00000000E+00  0.00000000E+00
  0.00000000E+00  0.00000000E+00  0.00000000E+00
  0.00000000E+00  0.00000000E+00  0.00000000E+00
  0.00000000E+00  0.00000000E+00  0.00000000E+00
  0.00000000E+00  0.00000000E+00  0.00000000E+00
  0.00000000E+00  0.00000000E+00  0.00000000E+00
