#8 (C m) [unique axis c] cell choice 1  
   5.00692999427390     
     0.2595481504384316    0.0000000000000000   -1.3187834766278790
    -0.5003221417273109    0.4989818325018872    0.0003154068853696
     0.5003221417273109    0.4989818325018872   -0.0003154068853696
   Fe   N 
     6     3
Direct
  0.8897947003680289  0.9525203783085485  0.5400397122761524
  0.8897947003680289  0.4599602877238474  0.0474796216914516
  0.5565374611902957  0.6237183999626876  0.8828734414719880
  0.5565374611902957  0.1171265585280048  0.3762816000373121
  0.2232735177559869  0.7959467452049788  0.7090823641212771
  0.2232735177559869  0.2909176358787228  0.2040532547950212
  0.3332938851509430  0.8156692250374478  0.1843307749625521
  0.6675524711910424  0.6349329913885555  0.3650670086114445
  0.0004822850294031  0.0003877779672164  0.9996122220327838
 
  0.00000000E+00  0.00000000E+00  0.00000000E+00
  0.00000000E+00  0.00000000E+00  0.00000000E+00
  0.00000000E+00  0.00000000E+00  0.00000000E+00
  0.00000000E+00  0.00000000E+00  0.00000000E+00
  0.00000000E+00  0.00000000E+00  0.00000000E+00
  0.00000000E+00  0.00000000E+00  0.00000000E+00
  0.00000000E+00  0.00000000E+00  0.00000000E+00
  0.00000000E+00  0.00000000E+00  0.00000000E+00
  0.00000000E+00  0.00000000E+00  0.00000000E+00
