#42 (F m m 2)                           
   9.06054997077976     
     0.0000000000000000   -0.1483675815478596    0.2507043492591955
    -0.4985011690575266    0.0000000000000000    0.2507043492591955
    -0.4985011690575266   -0.1483675815478596    0.0000000000000000
   Fe   N 
     2     1
Direct
  0.5333168461034619  0.8025935190560856  0.4666831538965381
  0.8025935190560856  0.5333168461034619  0.1974064809439145
  0.0002096348404537  0.0002096348404537  0.9997903651595462
 
  0.00000000E+00  0.00000000E+00  0.00000000E+00
  0.00000000E+00  0.00000000E+00  0.00000000E+00
  0.00000000E+00  0.00000000E+00  0.00000000E+00
