#162-P-312/m                            
  0.999999998169008     
     4.7360438137883420    0.0000000000000000   -0.0000000000000000
    -2.3680219068941710    4.1015342561768406    0.0000000000000000
    -0.0000000000000000    0.0000000000000000    4.3152337124186948
   Fe   N 
     6     3
Direct
  0.3306852492033578 -0.0000000000000000  0.2517928605960553
  0.0000000000000000  0.3306852492033578  0.2517928605960553
  0.6693147507966423  0.6693147507966423  0.2517928605960553
  0.3306852492033578  0.3306852492033578  0.7482071394039449
  0.6693147507966423  0.0000000000000000  0.7482071394039449
 -0.0000000000000000  0.6693147507966423  0.7482071394039449
 -0.0000000000000000 -0.0000000000000000  0.0000000000000000
  0.3333299999999966  0.6666700000000034  0.5000000000000000
  0.6666700000000034  0.3333299999999966  0.5000000000000000
 
  0.00000000E+00  0.00000000E+00  0.00000000E+00
  0.00000000E+00  0.00000000E+00  0.00000000E+00
  0.00000000E+00  0.00000000E+00  0.00000000E+00
  0.00000000E+00  0.00000000E+00  0.00000000E+00
  0.00000000E+00  0.00000000E+00  0.00000000E+00
  0.00000000E+00  0.00000000E+00  0.00000000E+00
  0.00000000E+00  0.00000000E+00  0.00000000E+00
  0.00000000E+00  0.00000000E+00  0.00000000E+00
  0.00000000E+00  0.00000000E+00  0.00000000E+00
