#187 (P -6 m 2)                         
   3.16665999284187     
     1.0001943147227934   -0.0000000000000000   -0.0000000000000000
    -0.5000971573613967    0.8661932812508850    0.0000000000000000
     0.0000000000000000    0.0000000000000000    1.1928083004019463
   Fe   N 
     2     1
Direct
 -0.0000000000000000 -0.0000000000000000  0.5000000000000000
  0.3333299999999966  0.6666700000000034  0.0000000000000000
 -0.0000000000000000  0.0000000000000000  0.0000000000000000
 
  0.00000000E+00  0.00000000E+00  0.00000000E+00
  0.00000000E+00  0.00000000E+00  0.00000000E+00
  0.00000000E+00  0.00000000E+00  0.00000000E+00
