#6 (P m) [unique axis c]                
   3.50260000493116     
    -0.4261291609363849    0.0000000000000000    2.0245950443357379
     1.0021778702404880    0.0000000000000000   -0.0018211453836880
     0.0000000000000000    1.0711206529564234    0.0000000000000000
   Fe   N 
     6     3
Direct
  0.5827062556241575  0.7133312713707494  0.0000000000000000
  0.3257522285503472  0.5388356209566411  0.5000000000000000
  0.2468801650707085  0.9739683533287894  0.0000000000000000
  0.6629698271190929  0.2662383856326434  0.5000000000000000
  0.9148596785577328  0.4656972234517499 -0.0000000000000000
  0.9952282254469470  0.9637718531067815  0.5000000000000000
  0.3307155725545413  0.5177688130139330  0.0000000000000000
  0.6643267677212565  0.2510305972614151  0.0000000000000000
  0.9996312793552090  0.9958778818772843 -0.0000000000000000
 
  0.00000000E+00  0.00000000E+00  0.00000000E+00
  0.00000000E+00  0.00000000E+00  0.00000000E+00
  0.00000000E+00  0.00000000E+00  0.00000000E+00
  0.00000000E+00  0.00000000E+00  0.00000000E+00
  0.00000000E+00  0.00000000E+00  0.00000000E+00
  0.00000000E+00  0.00000000E+00  0.00000000E+00
  0.00000000E+00  0.00000000E+00  0.00000000E+00
  0.00000000E+00  0.00000000E+00  0.00000000E+00
  0.00000000E+00  0.00000000E+00  0.00000000E+00
