#189 (P -6 2 m)                         
   5.36490000000758     
     1.0005635303330096    0.0000000000000000    0.0000000000000000
    -0.5002817651665048    0.8665130309016296   -0.0000000000000000
     0.0000000000000000    0.0000000000000000    0.7138428246447962
   Fe   N 
     6     3
Direct
  0.3055723415364789 -0.0000000000000000  0.5000000000000000
 -0.0000000000000000  0.3055723415364859  0.5000000000000000
  0.6944276584635141  0.6944276584635141  0.5000000000000000
  0.6281622914596288 -0.0000000000000000 -0.0000000000000000
 -0.0000000000000003  0.6281622914596352  0.0000000000000000
  0.3718377085403716  0.3718377085403649 -0.0000000000000000
  0.2888734506160297  0.0000000000000000  0.0000000000000000
  0.0000000000000064  0.2888734506160425  0.0000000000000000
  0.7111265493839639  0.7111265493839575 -0.0000000000000000
 
  0.00000000E+00  0.00000000E+00  0.00000000E+00
  0.00000000E+00  0.00000000E+00  0.00000000E+00
  0.00000000E+00  0.00000000E+00  0.00000000E+00
  0.00000000E+00  0.00000000E+00  0.00000000E+00
  0.00000000E+00  0.00000000E+00  0.00000000E+00
  0.00000000E+00  0.00000000E+00  0.00000000E+00
  0.00000000E+00  0.00000000E+00  0.00000000E+00
  0.00000000E+00  0.00000000E+00  0.00000000E+00
  0.00000000E+00  0.00000000E+00  0.00000000E+00
