#123 (P 4/m m m)                        
   2.77935998931286     
     0.9992360262345183    0.0000000000000000   -0.0000000000000000
     0.0000000000000000    0.9992360262345183    0.0000000000000000
    -0.0000000000000000    0.0000000000000000    1.3582530072362908
   Fe   N 
     2     1
Direct
  0.5000000000000000  0.5000000000000000  0.0000000000000000
 -0.0000000000000000 -0.0000000000000000  0.5000000000000000
 -0.0000000000000000 -0.0000000000000000 -0.0000000000000000
 
  0.00000000E+00  0.00000000E+00  0.00000000E+00
  0.00000000E+00  0.00000000E+00  0.00000000E+00
  0.00000000E+00  0.00000000E+00  0.00000000E+00
