#8 (C m) [unique axis c] cell choice 1  
   8.70401998682093     
     0.1028172618785805    0.0000000000000000   -0.6760530614771640
    -0.4997547463937980    0.2095796111308088   -0.0005402564930654
     0.4997547463937980    0.2095796111308088    0.0005402564930654
   Fe   N 
     6     3
Direct
  0.7176889127644728  0.0744225503605605  0.9255774496394394
  0.8675356678384947  0.7998040552086646  0.2001959447913353
  0.1592335536450442  0.1846135032258881  0.8153864967741118
  0.4501452299476860  0.6702850116168011  0.3297149883831989
  0.5743383796808295  0.3685949451904312  0.6314050548095687
  0.2948217096495484  0.9295901727781329  0.0704098272218670
  0.7078561338436519  0.5867015312041216  0.4132984687958782
  0.1528417256962091  0.7273404466481018  0.2726595533518982
  0.0004286869340543  0.0000377837673019 -0.0000377837673019
 
  0.00000000E+00  0.00000000E+00  0.00000000E+00
  0.00000000E+00  0.00000000E+00  0.00000000E+00
  0.00000000E+00  0.00000000E+00  0.00000000E+00
  0.00000000E+00  0.00000000E+00  0.00000000E+00
  0.00000000E+00  0.00000000E+00  0.00000000E+00
  0.00000000E+00  0.00000000E+00  0.00000000E+00
  0.00000000E+00  0.00000000E+00  0.00000000E+00
  0.00000000E+00  0.00000000E+00  0.00000000E+00
  0.00000000E+00  0.00000000E+00  0.00000000E+00
