#155 (R 3 2)                            
   5.35860999338896     
     0.5001926544604101    0.2888094642569236    0.7168339724033892
    -0.5002116804813673    0.2888181903509328    0.7168297753879724
    -0.0000019507874398   -0.5775959187126991    0.7168263320202157
   Fe   N 
     6     3
Direct
  0.3473523672854402  0.6526558466085318  0.9999992535817267
  0.0000007614298689  0.3473681077216428  0.6526412619737213
  0.6526504593283078  0.0000124982688626  0.3473532853615665
  0.1305706574452713  0.8694459435570767  0.4999976752692958
  0.5000025914190288  0.1306140039038438  0.8694055048539205
  0.8694083326465645  0.5000135720603385  0.1305836581028012
  0.7889882905061781  0.2110198474042888  0.5000058442921500
  0.5000083245429555  0.7889892603842740  0.2110250920339437
  0.2110182153963918  0.5000009200911294  0.7889884245308673
 
  0.00000000E+00  0.00000000E+00  0.00000000E+00
  0.00000000E+00  0.00000000E+00  0.00000000E+00
  0.00000000E+00  0.00000000E+00  0.00000000E+00
  0.00000000E+00  0.00000000E+00  0.00000000E+00
  0.00000000E+00  0.00000000E+00  0.00000000E+00
  0.00000000E+00  0.00000000E+00  0.00000000E+00
  0.00000000E+00  0.00000000E+00  0.00000000E+00
  0.00000000E+00  0.00000000E+00  0.00000000E+00
  0.00000000E+00  0.00000000E+00  0.00000000E+00
