#8 (C m) [unique axis c] cell choice 1  
   9.37735999088502     
     0.4526474578960605    0.0000000000000000   -0.7295848511843616
    -0.4998026975907240    0.1432398635208287   -0.0002832986665110
     0.4998026975907240    0.1432398635208287    0.0002832986665110
   Fe   N 
     6     3
Direct
  0.8372765898433094  0.5477750979637632  0.4522249020362367
  0.1664532221820146  0.2364647568046178  0.7635352431953822
  0.9218497959799919  0.3275313647690432  0.6724686352309568
  0.4887588336163672  0.7640093373237221  0.2359906626762778
  0.2307552837640514  0.9941973854846625  0.0058026145153374
  0.5832940760856801  0.0767180415982386  0.9232819584017614
  0.3459240353095541  0.8650343838087233  0.1349656161912767
  0.6639759578662342  0.3000325749201228  0.6999674250798772
  0.9995622053527916  0.9997670573271010  0.0002329426728990
 
  0.00000000E+00  0.00000000E+00  0.00000000E+00
  0.00000000E+00  0.00000000E+00  0.00000000E+00
  0.00000000E+00  0.00000000E+00  0.00000000E+00
  0.00000000E+00  0.00000000E+00  0.00000000E+00
  0.00000000E+00  0.00000000E+00  0.00000000E+00
  0.00000000E+00  0.00000000E+00  0.00000000E+00
  0.00000000E+00  0.00000000E+00  0.00000000E+00
  0.00000000E+00  0.00000000E+00  0.00000000E+00
  0.00000000E+00  0.00000000E+00  0.00000000E+00
