#47 (P m m m)                           
   3.81052000051401     
    -0.9997643910784161    0.0000000000000000    0.0000000000000000
     0.0000000000000000    0.0000000000000000    1.0203987756574859
     0.0000000000000000    3.0716884906633890    0.0000000000000000
   Fe   N 
    12     6
Direct
  0.0000000000000000  0.5000000000000000  0.0000183919985031
  0.5000000000000000  0.5000000000000000  0.5000050106913475
  0.5000000000000000  0.5000000000000000  0.8304341219828482
  0.5000000000000000  0.5000000000000000  0.1695771560702698
  0.0000000000000000  0.5000000000000000  0.3304251872894309
 -0.0000000000000000  0.5000000000000000  0.6695692678373926
  0.5000000000000000 -0.0000000000000000  0.3327452342350843
  0.5000000000000000 -0.0000000000000000  0.6670889527144941
 -0.0000000000000000 -0.0000000000000000  0.8327458857136105
  0.0000000000000000 -0.0000000000000000  0.1671188295932037
  0.5000000000000000 -0.0000000000000000  0.9996825512403025
 -0.0000000000000000 -0.0000000000000000  0.4999735926347880
  0.5000000000000000  0.5000000000000000  0.9999705809641676
  0.0000000000000000  0.5000000000000000  0.4999875553096857
  0.5000000000000000 -0.0000000000000000  0.8336163733723265
  0.5000000000000000 -0.0000000000000000  0.1661834647646782
  0.0000000000000000 -0.0000000000000000  0.3336964607615207
  0.0000000000000000 -0.0000000000000000  0.6662613828263518
 
  0.00000000E+00  0.00000000E+00  0.00000000E+00
  0.00000000E+00  0.00000000E+00  0.00000000E+00
  0.00000000E+00  0.00000000E+00  0.00000000E+00
  0.00000000E+00  0.00000000E+00  0.00000000E+00
  0.00000000E+00  0.00000000E+00  0.00000000E+00
  0.00000000E+00  0.00000000E+00  0.00000000E+00
  0.00000000E+00  0.00000000E+00  0.00000000E+00
  0.00000000E+00  0.00000000E+00  0.00000000E+00
  0.00000000E+00  0.00000000E+00  0.00000000E+00
  0.00000000E+00  0.00000000E+00  0.00000000E+00
  0.00000000E+00  0.00000000E+00  0.00000000E+00
  0.00000000E+00  0.00000000E+00  0.00000000E+00
  0.00000000E+00  0.00000000E+00  0.00000000E+00
  0.00000000E+00  0.00000000E+00  0.00000000E+00
  0.00000000E+00  0.00000000E+00  0.00000000E+00
  0.00000000E+00  0.00000000E+00  0.00000000E+00
  0.00000000E+00  0.00000000E+00  0.00000000E+00
  0.00000000E+00  0.00000000E+00  0.00000000E+00
