#189 (P -6 2 m)                         
   4.37373000604118     
     0.9991495773723893    0.0000000000000000   -0.0000000000000000
    -0.4995747886861946    0.8652885134305081    0.0000000000000000
     0.0000000000000000    0.0000000000000000    1.1360507591697915
   Fe   N 
     6     3
Direct
  0.6718815316096316 -0.0000000000000000  0.2500706348036861
  0.0000000000000009  0.6718815316096335  0.2500706348036861
  0.3281184683903674  0.3281184683903666  0.2500706348036861
  0.6718815316096316  0.0000000000000000  0.7499293651963138
  0.0000000000000009  0.6718815316096335  0.7499293651963138
  0.3281184683903674  0.3281184683903666  0.7499293651963138
  0.3333299999999966  0.6666700000000034  0.5000000000000000
  0.6666600000000003  0.3333299999999966  0.5000000000000000
 -0.0000000000000000  0.0000000000000000 -0.0000000000000000
 
  0.00000000E+00  0.00000000E+00  0.00000000E+00
  0.00000000E+00  0.00000000E+00  0.00000000E+00
  0.00000000E+00  0.00000000E+00  0.00000000E+00
  0.00000000E+00  0.00000000E+00  0.00000000E+00
  0.00000000E+00  0.00000000E+00  0.00000000E+00
  0.00000000E+00  0.00000000E+00  0.00000000E+00
  0.00000000E+00  0.00000000E+00  0.00000000E+00
  0.00000000E+00  0.00000000E+00  0.00000000E+00
  0.00000000E+00  0.00000000E+00  0.00000000E+00
