#38 (A m m 2)                           
   3.75899001279317     
     0.9998412217706716    0.0000000000000000    0.0000000000000000
     0.0000000000000000    0.4681817304249375    0.6289176669061052
     0.0000000000000000   -0.4681817304249375    0.6289176669061052
   Fe   N 
     2     1
Direct
  0.5000000000000000  0.9906638688416979  0.9906638688416979
  0.0000000000000000  0.3794513374240717  0.3794513374240717
  0.0000000000000000  0.9988347937342357  0.9988347937342357
 
  0.00000000E+00  0.00000000E+00  0.00000000E+00
  0.00000000E+00  0.00000000E+00  0.00000000E+00
  0.00000000E+00  0.00000000E+00  0.00000000E+00
