#38 (A m m 2)                           
   3.76020999856311     
     1.0044839818395361    0.0000000000000000    0.0000000000000000
     0.0000000000000000   -0.4164939059855603   -0.7382026022572098
     0.0000000000000000    0.4164939059855603   -0.7382026022572098
   Fe   N 
     2     1
Direct
 -0.0000000000000000  0.3291063154689279  0.3291063154689279
  0.5000000000000000  0.9990672940012457  0.9990672940012457
  0.0000000000000000  0.9989063905298144  0.9989063905298144
 
  0.00000000E+00  0.00000000E+00  0.00000000E+00
  0.00000000E+00  0.00000000E+00  0.00000000E+00
  0.00000000E+00  0.00000000E+00  0.00000000E+00
