#221 (P m -3 m)                         
   3.78306999833933     
     1.0011248715674168    0.0000000000000000   -0.0000000000000000
     0.0000000000000000    1.0011248715674168   -0.0000000000000000
     0.0000000000000000    0.0000000000000000    1.0011248715674168
   Fe   N 
     4     1
Direct
  0.5000000000000000  0.5000000000000000  0.5000000000000000
  0.5000000000000000 -0.0000000000000000 -0.0000000000000000
 -0.0000000000000000  0.0000000000000000  0.5000000000000000
 -0.0000000000000000  0.5000000000000000 -0.0000000000000000
  0.0000000000000000 -0.0000000000000000  0.0000000000000000
 
  0.00000000E+00  0.00000000E+00  0.00000000E+00
  0.00000000E+00  0.00000000E+00  0.00000000E+00
  0.00000000E+00  0.00000000E+00  0.00000000E+00
  0.00000000E+00  0.00000000E+00  0.00000000E+00
  0.00000000E+00  0.00000000E+00  0.00000000E+00
