#65 (C m m m)                           
   6.66667998359097     
    -0.4991797638441256    0.4239239333980684    0.0000000000000000
     0.4991797638441256    0.4239239333980684    0.0000000000000000
     0.0000000000000000    0.0000000000000000   -0.4158704400855756
   Fe   N 
     4     1
Direct
  0.7589570677884738  0.7589570677884738  0.5000000000000000
  0.2410429322115262  0.2410429322115262  0.5000000000000000
  0.7175783582556907  0.2824216417443093 -0.0000000000000000
  0.2824216417443093  0.7175783582556907 -0.0000000000000000
 -0.0000000000000000  0.0000000000000000 -0.0000000000000000
 
  0.00000000E+00  0.00000000E+00  0.00000000E+00
  0.00000000E+00  0.00000000E+00  0.00000000E+00
  0.00000000E+00  0.00000000E+00  0.00000000E+00
  0.00000000E+00  0.00000000E+00  0.00000000E+00
  0.00000000E+00  0.00000000E+00  0.00000000E+00
