#2 (P -1)                               
   2.63422000171925     
     1.0081788802301364    0.0011519309820984   -0.0024277117771942
    -0.1149303144943163    1.6187793156659074    0.0023572141087528
    -0.1642364258110857   -0.1022746568841203    1.7586444447670204
   Fe   N 
     4     1
Direct
  0.4896616966343594  0.7393709595084619  0.1576681406965566
  0.5103383033656407  0.2606290404915382  0.8423318593034433
  0.9118013990304458  0.7384893400379002  0.6413959861617609
  0.0881986009695542  0.2615106599620998  0.3586040138382390
  0.0000000000000000  0.0000000000000000  0.0000000000000000
 
  0.00000000E+00  0.00000000E+00  0.00000000E+00
  0.00000000E+00  0.00000000E+00  0.00000000E+00
  0.00000000E+00  0.00000000E+00  0.00000000E+00
  0.00000000E+00  0.00000000E+00  0.00000000E+00
  0.00000000E+00  0.00000000E+00  0.00000000E+00
