#139-I4/m2/m2/m                         
   1.00000000133230     
     3.7633490832556586    0.0000000000000000    0.0000000000000000
     0.0000000000000000    3.7633490832556586    0.0000000000000000
     0.0000000000000000   -0.0000000000000000    7.3908075220185525
   Fe   N 
     8     2
Direct
  0.0000000000000000  0.5000000000000000 -0.0000000000000000
  0.5000000000000000 -0.0000000000000000 -0.0000000000000000
  0.5000000000000000 -0.0000000000000000  0.5000000000000000
  0.0000000000000000  0.5000000000000000  0.5000000000000000
 -0.0000000000000000 -0.0000000000000000  0.2582145166446450
  0.0000000000000000  0.0000000000000000  0.7417854833553551
  0.5000000000000000  0.5000000000000000  0.7582145166446449
  0.5000000000000000  0.5000000000000000  0.2417854833553550
 -0.0000000000000000  0.0000000000000000 -0.0000000000000000
  0.5000000000000000  0.5000000000000000  0.5000000000000000
 
  0.00000000E+00  0.00000000E+00  0.00000000E+00
  0.00000000E+00  0.00000000E+00  0.00000000E+00
  0.00000000E+00  0.00000000E+00  0.00000000E+00
  0.00000000E+00  0.00000000E+00  0.00000000E+00
  0.00000000E+00  0.00000000E+00  0.00000000E+00
  0.00000000E+00  0.00000000E+00  0.00000000E+00
  0.00000000E+00  0.00000000E+00  0.00000000E+00
  0.00000000E+00  0.00000000E+00  0.00000000E+00
  0.00000000E+00  0.00000000E+00  0.00000000E+00
  0.00000000E+00  0.00000000E+00  0.00000000E+00
