#12 (C 2/m) [unique axis c] cell choice 
   9.17600998363356     
     0.1742181304822180    0.0000000000000000   -0.4412401353214780
    -0.5010710750987091    0.1532142874906172    0.0013312667919311
     0.5010710750987091    0.1532142874906172   -0.0013312667919311
   Fe   N 
     4     1
Direct
  0.9027633585860751  0.6248151432979171  0.3751848567020830
  0.0972366414139249  0.3751848567020830  0.6248151432979171
  0.4370498455882981  0.1376201198263875  0.8623798801736124
  0.5629501544117018  0.8623798801736124  0.1376201198263875
  0.0000000000000000 -0.0000000000000000  0.0000000000000000
 
  0.00000000E+00  0.00000000E+00  0.00000000E+00
  0.00000000E+00  0.00000000E+00  0.00000000E+00
  0.00000000E+00  0.00000000E+00  0.00000000E+00
  0.00000000E+00  0.00000000E+00  0.00000000E+00
  0.00000000E+00  0.00000000E+00  0.00000000E+00
