#2 (P -1)                               
   5.00096999824911     
     0.9984116805981945   -0.0006549039250238   -0.0004377860280600
     0.3369269134658940    0.9442989119245737    0.0001171053482452
     0.3342390593583456    0.2320091796436905    2.0354233979330103
   Co   Fe   Ta
     2    16     2
Direct
  0.4929325833427875  0.2600287911065275  0.4968736095657913
  0.5070674166572126  0.7399712088934726  0.5031263904342086
  0.8998307505001740  0.1472922535071891  0.9017484947124174
  0.1001692494998259  0.8527077464928109  0.0982515052875827
  0.9051202749192210  0.6420573789696913  0.9027437608441757
  0.0948797250807790  0.3579426210303085  0.0972562391558245
  0.3927958252026659  0.1548742432027016  0.9040683110984383
  0.6072041747973340  0.8451257567972984  0.0959316889015615
  0.8019363100818357  0.0516827214085395  0.2997559774891650
  0.1980636899181643  0.9483172785914604  0.7002440225108348
  0.3003361861955710  0.5523350033144805  0.2960637689012641
  0.6996638138044292  0.4476649966855195  0.7039362310987359
  0.8005599760082521  0.5513859841387745  0.2995179336000105
  0.1994400239917479  0.4486140158612255  0.7004820663999897
  0.6013538296848149  0.3496880305376748  0.0982315570015053
  0.3986461703151850  0.6503119694623253  0.9017684429984947
  0.9923847968150069  0.2567613361307005  0.5036125416684630
  0.0076152031849929  0.7432386638692995  0.4963874583315369
  0.6978473162318449  0.9492368188598140  0.7004386243426799
  0.3021526837681549  0.0507631811401861  0.2995613756573201
 
  0.00000000E+00  0.00000000E+00  0.00000000E+00
  0.00000000E+00  0.00000000E+00  0.00000000E+00
  0.00000000E+00  0.00000000E+00  0.00000000E+00
  0.00000000E+00  0.00000000E+00  0.00000000E+00
  0.00000000E+00  0.00000000E+00  0.00000000E+00
  0.00000000E+00  0.00000000E+00  0.00000000E+00
  0.00000000E+00  0.00000000E+00  0.00000000E+00
  0.00000000E+00  0.00000000E+00  0.00000000E+00
  0.00000000E+00  0.00000000E+00  0.00000000E+00
  0.00000000E+00  0.00000000E+00  0.00000000E+00
  0.00000000E+00  0.00000000E+00  0.00000000E+00
  0.00000000E+00  0.00000000E+00  0.00000000E+00
  0.00000000E+00  0.00000000E+00  0.00000000E+00
  0.00000000E+00  0.00000000E+00  0.00000000E+00
  0.00000000E+00  0.00000000E+00  0.00000000E+00
  0.00000000E+00  0.00000000E+00  0.00000000E+00
  0.00000000E+00  0.00000000E+00  0.00000000E+00
  0.00000000E+00  0.00000000E+00  0.00000000E+00
  0.00000000E+00  0.00000000E+00  0.00000000E+00
  0.00000000E+00  0.00000000E+00  0.00000000E+00
