#1 (P 1)                                
   5.78658999798113     
     0.9974561519937446    0.0000671462913224    0.0004818454028555
     0.0041321330253729    1.1145595909820114   -0.0009029009757785
     0.4973790451539158    0.0002837911752449    1.1161609281618203
   Co   Fe   Ta
     2    16     2
Direct
  0.2968446799978686  0.3009206239710119  0.9071195161936804
  0.0000770214105465  0.0003081110409505 -0.0000239685175994
  0.9002926249389981  0.4103753027068668  0.2032255269986023
  0.9119414814345901  0.9111692090272818  0.7017207281088367
  0.6043501294899990  0.1055030999031368  0.3048828854216543
  0.8096791612896560  0.2991208281506312  0.9066806268745138
  0.7074887109196590  0.7088003710443281  0.1090877793826006
  0.6954388457474426  0.2052712098633857  0.6107007736853542
  0.5017085057338689  0.5023046818558865  0.4999977859033643
  0.5127441914178000  0.0061948573554341  0.9982867460499109
  0.7969029332596103  0.8004794433718596  0.4073505526017936
  0.3980409809555709  0.9103841633496210  0.7050608773660288
  0.1045562733797132  0.6052711266669134  0.8044624330666184
  0.4121866205298313  0.4097263762576622  0.2024574220122990
  0.1948356776713942  0.7051523832243509  0.1104238510483777
  0.2064750458540441  0.2090694801001149  0.6108245511833078
  0.3093484292734559  0.8008231648360101  0.4051826739277899
  0.0130162600988352  0.5051640366174114  0.4995422723697133
  0.6039234640638989  0.6051826591931704  0.8046474202282600
  0.1048889625331997  0.1051288714639576  0.3034895460948598
 
  0.00000000E+00  0.00000000E+00  0.00000000E+00
  0.00000000E+00  0.00000000E+00  0.00000000E+00
  0.00000000E+00  0.00000000E+00  0.00000000E+00
  0.00000000E+00  0.00000000E+00  0.00000000E+00
  0.00000000E+00  0.00000000E+00  0.00000000E+00
  0.00000000E+00  0.00000000E+00  0.00000000E+00
  0.00000000E+00  0.00000000E+00  0.00000000E+00
  0.00000000E+00  0.00000000E+00  0.00000000E+00
  0.00000000E+00  0.00000000E+00  0.00000000E+00
  0.00000000E+00  0.00000000E+00  0.00000000E+00
  0.00000000E+00  0.00000000E+00  0.00000000E+00
  0.00000000E+00  0.00000000E+00  0.00000000E+00
  0.00000000E+00  0.00000000E+00  0.00000000E+00
  0.00000000E+00  0.00000000E+00  0.00000000E+00
  0.00000000E+00  0.00000000E+00  0.00000000E+00
  0.00000000E+00  0.00000000E+00  0.00000000E+00
  0.00000000E+00  0.00000000E+00  0.00000000E+00
  0.00000000E+00  0.00000000E+00  0.00000000E+00
  0.00000000E+00  0.00000000E+00  0.00000000E+00
  0.00000000E+00  0.00000000E+00  0.00000000E+00
