#12-C12/m1                              
   1.00000000007295     
     8.5926597979667143    0.0000000000000000    0.0046858985669559
     0.0000000000000000    4.0383433777689657    0.0000000000000000
    -0.4915515296751010    0.0000000000000000    4.7207024948709773
   Fe   Ge
    12     2
Direct
  0.4271976505804531  0.0000000000000000  0.7076831102005627
  0.5728023494195469  0.0000000000000000  0.2923168897994373
  0.9271976505804531  0.5000000000000000  0.7076831102005627
  0.0728023494195469  0.5000000000000000  0.2923168897994373
  0.2903665461926224  0.0000000000000000  0.1424874072309024
  0.7096334538073776  0.0000000000000000  0.8575125927690976
  0.7903665461926224  0.5000000000000000  0.1424874072309024
  0.2096334538073776  0.5000000000000000  0.8575125927690976
  0.8559687660005864  0.0000000000000000  0.4363121653327653
  0.1440312339994136  0.0000000000000000  0.5636878346672347
  0.3559687660005864  0.5000000000000000  0.4363121653327653
  0.6440312339994136  0.5000000000000000  0.5636878346672347
  0.0000000000000000  0.0000000000000000  0.0000000000000000
  0.5000000000000000  0.5000000000000000  0.0000000000000000
 
  0.00000000E+00  0.00000000E+00  0.00000000E+00
  0.00000000E+00  0.00000000E+00  0.00000000E+00
  0.00000000E+00  0.00000000E+00  0.00000000E+00
  0.00000000E+00  0.00000000E+00  0.00000000E+00
  0.00000000E+00  0.00000000E+00  0.00000000E+00
  0.00000000E+00  0.00000000E+00  0.00000000E+00
  0.00000000E+00  0.00000000E+00  0.00000000E+00
  0.00000000E+00  0.00000000E+00  0.00000000E+00
  0.00000000E+00  0.00000000E+00  0.00000000E+00
  0.00000000E+00  0.00000000E+00  0.00000000E+00
  0.00000000E+00  0.00000000E+00  0.00000000E+00
  0.00000000E+00  0.00000000E+00  0.00000000E+00
  0.00000000E+00  0.00000000E+00  0.00000000E+00
  0.00000000E+00  0.00000000E+00  0.00000000E+00
