#12-C12/m1                              
  0.999999999666643     
    16.5048843653798727    0.0000000000000000    0.0323087590022759
     0.0000000000000000    4.0369642139699389    0.0000000000000000
    -0.5420153059834371    0.0000000000000000    4.9421182403313120
   Fe   Ge
    24     4
Direct
  0.0000000000000000  0.0000000000000000  0.0000000000000000
  0.5000000000000000  0.5000000000000000  0.0000000000000000
  0.5717792076932398  0.0000000000000000  0.8595302575204542
  0.4282207923067602  0.0000000000000000  0.1404697424795387
  0.0717792076932398  0.5000000000000000  0.8595302575204542
  0.9282207923067602  0.5000000000000000  0.1404697424795387
  0.1420423530510320  0.0000000000000000  0.7129489803190125
  0.8579576469489680  0.0000000000000000  0.2870510196809875
  0.6420423530510320  0.5000000000000000  0.7129489803190125
  0.3579576469489680  0.5000000000000000  0.2870510196809875
  0.5693984641102503  0.0000000000000000  0.3595336983273114
  0.4306015358897426  0.0000000000000000  0.6404663016726886
  0.0693984641102574  0.5000000000000000  0.3595336983273114
  0.9306015358897497  0.5000000000000000  0.6404663016726886
  0.2832677481545574  0.0000000000000000  0.9359844739237317
  0.7167322518454426  0.0000000000000000  0.0640155260762683
  0.7832677481545574  0.5000000000000000  0.9359844739237317
  0.2167322518454426  0.5000000000000000  0.0640155260762683
  0.0000000000000000  0.0000000000000000  0.5000000000000000
  0.5000000000000000  0.5000000000000000  0.5000000000000000
  0.2886954310538457  0.0000000000000000  0.4374480525932469
  0.7113045689461472  0.0000000000000000  0.5625519474067531
  0.7886954310538528  0.5000000000000000  0.4374480525932469
  0.2113045689461543  0.5000000000000000  0.5625519474067531
  0.1445357205042654  0.0000000000000000  0.2146946451580050
  0.8554642794957346  0.0000000000000000  0.7853053548419950
  0.6445357205042654  0.5000000000000000  0.2146946451580050
  0.3554642794957346  0.5000000000000000  0.7853053548419950
 
  0.00000000E+00  0.00000000E+00  0.00000000E+00
  0.00000000E+00  0.00000000E+00  0.00000000E+00
  0.00000000E+00  0.00000000E+00  0.00000000E+00
  0.00000000E+00  0.00000000E+00  0.00000000E+00
  0.00000000E+00  0.00000000E+00  0.00000000E+00
  0.00000000E+00  0.00000000E+00  0.00000000E+00
  0.00000000E+00  0.00000000E+00  0.00000000E+00
  0.00000000E+00  0.00000000E+00  0.00000000E+00
  0.00000000E+00  0.00000000E+00  0.00000000E+00
  0.00000000E+00  0.00000000E+00  0.00000000E+00
  0.00000000E+00  0.00000000E+00  0.00000000E+00
  0.00000000E+00  0.00000000E+00  0.00000000E+00
  0.00000000E+00  0.00000000E+00  0.00000000E+00
  0.00000000E+00  0.00000000E+00  0.00000000E+00
  0.00000000E+00  0.00000000E+00  0.00000000E+00
  0.00000000E+00  0.00000000E+00  0.00000000E+00
  0.00000000E+00  0.00000000E+00  0.00000000E+00
  0.00000000E+00  0.00000000E+00  0.00000000E+00
  0.00000000E+00  0.00000000E+00  0.00000000E+00
  0.00000000E+00  0.00000000E+00  0.00000000E+00
  0.00000000E+00  0.00000000E+00  0.00000000E+00
  0.00000000E+00  0.00000000E+00  0.00000000E+00
  0.00000000E+00  0.00000000E+00  0.00000000E+00
  0.00000000E+00  0.00000000E+00  0.00000000E+00
  0.00000000E+00  0.00000000E+00  0.00000000E+00
  0.00000000E+00  0.00000000E+00  0.00000000E+00
  0.00000000E+00  0.00000000E+00  0.00000000E+00
  0.00000000E+00  0.00000000E+00  0.00000000E+00
