#166-R-32/m(hexagonalaxes)              
  0.999999999837433     
     4.0193847289657576    0.0000000000000000    0.0000000000000000
    -2.0096923644828788    3.4808892828675773    0.0000000000000000
     0.0000000000000000    0.0000000000000000   34.7705336252598940
   Fe   Ge
    36     6
Direct
  0.0000000000000000  0.0000000000000000  0.8564500117344167
  0.0000000000000000  0.0000000000000000  0.1435499882655833
  0.3333299999999966  0.6666700000000034  0.5231200117344201
  0.3333299999999966  0.6666700000000034  0.8102199882655796
  0.6666700000000034  0.3333299999999966  0.1897800117344204
  0.6666700000000034  0.3333299999999966  0.4768799882655799
  0.0000000000000000  0.0000000000000000  0.6438449833641542
  0.0000000000000000  0.0000000000000000  0.3561550166358458
  0.3333299999999966  0.6666700000000034  0.3105149833641576
  0.3333299999999966  0.6666700000000034  0.0228250166358421
  0.6666700000000034  0.3333299999999966  0.9771749833641579
  0.6666700000000034  0.3333299999999966  0.6894850166358424
  0.0000000000000000  0.0000000000000000  0.2861540533698559
  0.0000000000000000  0.0000000000000000  0.7138459466301441
  0.3333299999999966  0.6666700000000034  0.9528240533698593
  0.3333299999999966  0.6666700000000034  0.3805159466301404
  0.6666700000000034  0.3333299999999966  0.6194840533698596
  0.6666700000000034  0.3333299999999966  0.0471759466301407
  0.0000000000000000  0.0000000000000000  0.5000000000000000
  0.3333299999999966  0.6666700000000034  0.1666700000000034
  0.6666700000000034  0.3333299999999966  0.8333299999999966
  0.0000000000000000  0.0000000000000000  0.5709318331519384
  0.0000000000000000  0.0000000000000000  0.4290681668480616
  0.3333299999999966  0.6666700000000034  0.2376018331519347
  0.3333299999999966  0.6666700000000034  0.0957381668480650
  0.6666700000000034  0.3333299999999966  0.9042618331519350
  0.6666700000000034  0.3333299999999966  0.7623981668480653
  0.0000000000000000  0.0000000000000000  0.0000000000000000
  0.3333299999999966  0.6666700000000034  0.6666700000000034
  0.6666700000000034  0.3333299999999966  0.3333299999999966
  0.0000000000000000  0.0000000000000000  0.7863686973557762
  0.0000000000000000  0.0000000000000000  0.2136313026442238
  0.3333299999999966  0.6666700000000034  0.4530386973557796
  0.3333299999999966  0.6666700000000034  0.8803013026442201
  0.6666700000000034  0.3333299999999966  0.1196986973557799
  0.6666700000000034  0.3333299999999966  0.5469613026442204
  0.0000000000000000  0.0000000000000000  0.9282874725658488
  0.0000000000000000  0.0000000000000000  0.0717125274341512
  0.3333299999999966  0.6666700000000034  0.5949574725658522
  0.3333299999999966  0.6666700000000034  0.7383825274341476
  0.6666700000000034  0.3333299999999966  0.2616174725658524
  0.6666700000000034  0.3333299999999966  0.4050425274341478
 
  0.00000000E+00  0.00000000E+00  0.00000000E+00
  0.00000000E+00  0.00000000E+00  0.00000000E+00
  0.00000000E+00  0.00000000E+00  0.00000000E+00
  0.00000000E+00  0.00000000E+00  0.00000000E+00
  0.00000000E+00  0.00000000E+00  0.00000000E+00
  0.00000000E+00  0.00000000E+00  0.00000000E+00
  0.00000000E+00  0.00000000E+00  0.00000000E+00
  0.00000000E+00  0.00000000E+00  0.00000000E+00
  0.00000000E+00  0.00000000E+00  0.00000000E+00
  0.00000000E+00  0.00000000E+00  0.00000000E+00
  0.00000000E+00  0.00000000E+00  0.00000000E+00
  0.00000000E+00  0.00000000E+00  0.00000000E+00
  0.00000000E+00  0.00000000E+00  0.00000000E+00
  0.00000000E+00  0.00000000E+00  0.00000000E+00
  0.00000000E+00  0.00000000E+00  0.00000000E+00
  0.00000000E+00  0.00000000E+00  0.00000000E+00
  0.00000000E+00  0.00000000E+00  0.00000000E+00
  0.00000000E+00  0.00000000E+00  0.00000000E+00
  0.00000000E+00  0.00000000E+00  0.00000000E+00
  0.00000000E+00  0.00000000E+00  0.00000000E+00
  0.00000000E+00  0.00000000E+00  0.00000000E+00
  0.00000000E+00  0.00000000E+00  0.00000000E+00
  0.00000000E+00  0.00000000E+00  0.00000000E+00
  0.00000000E+00  0.00000000E+00  0.00000000E+00
  0.00000000E+00  0.00000000E+00  0.00000000E+00
  0.00000000E+00  0.00000000E+00  0.00000000E+00
  0.00000000E+00  0.00000000E+00  0.00000000E+00
  0.00000000E+00  0.00000000E+00  0.00000000E+00
  0.00000000E+00  0.00000000E+00  0.00000000E+00
  0.00000000E+00  0.00000000E+00  0.00000000E+00
  0.00000000E+00  0.00000000E+00  0.00000000E+00
  0.00000000E+00  0.00000000E+00  0.00000000E+00
  0.00000000E+00  0.00000000E+00  0.00000000E+00
  0.00000000E+00  0.00000000E+00  0.00000000E+00
  0.00000000E+00  0.00000000E+00  0.00000000E+00
  0.00000000E+00  0.00000000E+00  0.00000000E+00
  0.00000000E+00  0.00000000E+00  0.00000000E+00
  0.00000000E+00  0.00000000E+00  0.00000000E+00
  0.00000000E+00  0.00000000E+00  0.00000000E+00
  0.00000000E+00  0.00000000E+00  0.00000000E+00
  0.00000000E+00  0.00000000E+00  0.00000000E+00
  0.00000000E+00  0.00000000E+00  0.00000000E+00
