#2-P-1                                  
   1.00000000007552     
     4.9725046144230083    0.0004257702424667    0.0059718525543658
    -0.7038505109485622    6.2093923490500753   -0.0054746213595032
    -0.9153587084795752   -3.1453452381195728    5.3396049121004650
   Fe   Ge
    12     2
Direct
  0.0262013573958271  0.4185126314304952  0.2794062666697386
  0.9737986426041729  0.5814873685695048  0.7205937333302614
  0.8131718713037870  0.8579088089447637  0.5720882857809215
  0.1868281286962130  0.1420911910552363  0.4279117142190785
  0.2508386946958012  0.0039587722801855  0.0079685055366028
  0.7491613053041988  0.9960412277198145  0.9920314944633972
  0.8944286146565759  0.7141495481312532  0.1436215404717274
  0.1055713853434241  0.2858504518687468  0.8563784595282726
  0.5287763957915885  0.4353617219671051  0.2822223912513238
  0.4712236042084115  0.5646382780328949  0.7177776087486762
  0.3929889010250349  0.7141693678092906  0.1416741073048797
  0.6070110989749651  0.2858306321907094  0.8583258926951203
  0.3077659099740728  0.8454641415923447  0.5746522476569638
  0.6922340900259272  0.1545358584076553  0.4253477523430362
 
  0.00000000E+00  0.00000000E+00  0.00000000E+00
  0.00000000E+00  0.00000000E+00  0.00000000E+00
  0.00000000E+00  0.00000000E+00  0.00000000E+00
  0.00000000E+00  0.00000000E+00  0.00000000E+00
  0.00000000E+00  0.00000000E+00  0.00000000E+00
  0.00000000E+00  0.00000000E+00  0.00000000E+00
  0.00000000E+00  0.00000000E+00  0.00000000E+00
  0.00000000E+00  0.00000000E+00  0.00000000E+00
  0.00000000E+00  0.00000000E+00  0.00000000E+00
  0.00000000E+00  0.00000000E+00  0.00000000E+00
  0.00000000E+00  0.00000000E+00  0.00000000E+00
  0.00000000E+00  0.00000000E+00  0.00000000E+00
  0.00000000E+00  0.00000000E+00  0.00000000E+00
  0.00000000E+00  0.00000000E+00  0.00000000E+00
