#12-C12/m1                              
   1.00000000018317     
    16.6733100202684170    0.0000000000000000    0.0269331380230879
     0.0000000000000000    3.9973992243184187    0.0000000000000000
    -0.6815049068085172    0.0000000000000000    4.9189831635908083
   Fe   Ge
    24     4
Direct
  0.8540609537793102  0.0000000000000000  0.3041729103061215
  0.1459390462206898  0.0000000000000000  0.6958270896938785
  0.3540609537793102  0.5000000000000000  0.3041729103061215
  0.6459390462206898  0.5000000000000000  0.6958270896938785
  0.1439853927723647  0.0000000000000000  0.2012026647148417
  0.8560146072276353  0.0000000000000000  0.7987973352851583
  0.6439853927723647  0.5000000000000000  0.2012026647148417
  0.3560146072276353  0.5000000000000000  0.7987973352851583
  0.0000000000000000  0.0000000000000000  0.0000000000000000
  0.5000000000000000  0.5000000000000000  0.0000000000000000
  0.2864177669812094  0.0000000000000000  0.4327271581523462
  0.7135822330187906  0.0000000000000000  0.5672728418476538
  0.7864177669812094  0.5000000000000000  0.4327271581523462
  0.2135822330187906  0.5000000000000000  0.5672728418476538
  0.2831136281368387  0.0000000000000000  0.9271829260775561
  0.7168863718631613  0.0000000000000000  0.0728170739224439
  0.7831136281368387  0.5000000000000000  0.9271829260775561
  0.2168863718631613  0.5000000000000000  0.0728170739224439
  0.0000000000000000  0.0000000000000000  0.5000000000000000
  0.5000000000000000  0.5000000000000000  0.5000000000000000
  0.5712013946555814  0.0000000000000000  0.3351090404687653
  0.4287986053444186  0.0000000000000000  0.6648909595312347
  0.0712013946555814  0.5000000000000000  0.3351090404687653
  0.9287986053444186  0.5000000000000000  0.6648909595312347
  0.4234253693964973  0.0000000000000000  0.1635411560360964
  0.5765746306035027  0.0000000000000000  0.8364588439639036
  0.9234253693964973  0.5000000000000000  0.1635411560360964
  0.0765746306035098  0.5000000000000000  0.8364588439639036
 
  0.00000000E+00  0.00000000E+00  0.00000000E+00
  0.00000000E+00  0.00000000E+00  0.00000000E+00
  0.00000000E+00  0.00000000E+00  0.00000000E+00
  0.00000000E+00  0.00000000E+00  0.00000000E+00
  0.00000000E+00  0.00000000E+00  0.00000000E+00
  0.00000000E+00  0.00000000E+00  0.00000000E+00
  0.00000000E+00  0.00000000E+00  0.00000000E+00
  0.00000000E+00  0.00000000E+00  0.00000000E+00
  0.00000000E+00  0.00000000E+00  0.00000000E+00
  0.00000000E+00  0.00000000E+00  0.00000000E+00
  0.00000000E+00  0.00000000E+00  0.00000000E+00
  0.00000000E+00  0.00000000E+00  0.00000000E+00
  0.00000000E+00  0.00000000E+00  0.00000000E+00
  0.00000000E+00  0.00000000E+00  0.00000000E+00
  0.00000000E+00  0.00000000E+00  0.00000000E+00
  0.00000000E+00  0.00000000E+00  0.00000000E+00
  0.00000000E+00  0.00000000E+00  0.00000000E+00
  0.00000000E+00  0.00000000E+00  0.00000000E+00
  0.00000000E+00  0.00000000E+00  0.00000000E+00
  0.00000000E+00  0.00000000E+00  0.00000000E+00
  0.00000000E+00  0.00000000E+00  0.00000000E+00
  0.00000000E+00  0.00000000E+00  0.00000000E+00
  0.00000000E+00  0.00000000E+00  0.00000000E+00
  0.00000000E+00  0.00000000E+00  0.00000000E+00
  0.00000000E+00  0.00000000E+00  0.00000000E+00
  0.00000000E+00  0.00000000E+00  0.00000000E+00
  0.00000000E+00  0.00000000E+00  0.00000000E+00
  0.00000000E+00  0.00000000E+00  0.00000000E+00
