#63-C2/m2/c21/m                         
  0.999999999629839     
     4.0257887678127462    0.0000000000000000    0.0000000000000000
     0.0000000000000000   20.0028725627330140    0.0000000000000000
     0.0000000000000000    0.0000000000000000    4.0233666220517419
   Fe   Ge
    24     4
Direct
  0.0000000000000000  0.8225172028573411  0.2500000000000000
  0.0000000000000000  0.1774827971426589  0.7500000000000000
  0.5000000000000000  0.3225172028573411  0.2500000000000000
  0.5000000000000000  0.6774827971426589  0.7500000000000000
  0.0000000000000000  0.5359056771330515  0.2500000000000000
  0.0000000000000000  0.4640943228669485  0.7500000000000000
  0.5000000000000000  0.0359056771330515  0.2500000000000000
  0.5000000000000000  0.9640943228669485  0.7500000000000000
  0.0000000000000000  0.9643060476037135  0.2500000000000000
  0.0000000000000000  0.0356939523962865  0.7500000000000000
  0.5000000000000000  0.4643060476037135  0.2500000000000000
  0.5000000000000000  0.5356939523962865  0.7500000000000000
  0.0000000000000000  0.1047077046892682  0.2500000000000000
  0.0000000000000000  0.8952922953107318  0.7500000000000000
  0.5000000000000000  0.6047077046892682  0.2500000000000000
  0.5000000000000000  0.3952922953107318  0.7500000000000000
  0.0000000000000000  0.3954707626242850  0.2500000000000000
  0.0000000000000000  0.6045292373757150  0.7500000000000000
  0.5000000000000000  0.8954707626242850  0.2500000000000000
  0.5000000000000000  0.1045292373757150  0.7500000000000000
  0.0000000000000000  0.2499093723850407  0.2500000000000000
  0.0000000000000000  0.7500906276149593  0.7500000000000000
  0.5000000000000000  0.7499093723850407  0.2500000000000000
  0.5000000000000000  0.2500906276149593  0.7500000000000000
  0.0000000000000000  0.6774259318746090  0.2500000000000000
  0.0000000000000000  0.3225740681253910  0.7500000000000000
  0.5000000000000000  0.1774259318746090  0.2500000000000000
  0.5000000000000000  0.8225740681253910  0.7500000000000000
 
  0.00000000E+00  0.00000000E+00  0.00000000E+00
  0.00000000E+00  0.00000000E+00  0.00000000E+00
  0.00000000E+00  0.00000000E+00  0.00000000E+00
  0.00000000E+00  0.00000000E+00  0.00000000E+00
  0.00000000E+00  0.00000000E+00  0.00000000E+00
  0.00000000E+00  0.00000000E+00  0.00000000E+00
  0.00000000E+00  0.00000000E+00  0.00000000E+00
  0.00000000E+00  0.00000000E+00  0.00000000E+00
  0.00000000E+00  0.00000000E+00  0.00000000E+00
  0.00000000E+00  0.00000000E+00  0.00000000E+00
  0.00000000E+00  0.00000000E+00  0.00000000E+00
  0.00000000E+00  0.00000000E+00  0.00000000E+00
  0.00000000E+00  0.00000000E+00  0.00000000E+00
  0.00000000E+00  0.00000000E+00  0.00000000E+00
  0.00000000E+00  0.00000000E+00  0.00000000E+00
  0.00000000E+00  0.00000000E+00  0.00000000E+00
  0.00000000E+00  0.00000000E+00  0.00000000E+00
  0.00000000E+00  0.00000000E+00  0.00000000E+00
  0.00000000E+00  0.00000000E+00  0.00000000E+00
  0.00000000E+00  0.00000000E+00  0.00000000E+00
  0.00000000E+00  0.00000000E+00  0.00000000E+00
  0.00000000E+00  0.00000000E+00  0.00000000E+00
  0.00000000E+00  0.00000000E+00  0.00000000E+00
  0.00000000E+00  0.00000000E+00  0.00000000E+00
  0.00000000E+00  0.00000000E+00  0.00000000E+00
  0.00000000E+00  0.00000000E+00  0.00000000E+00
  0.00000000E+00  0.00000000E+00  0.00000000E+00
  0.00000000E+00  0.00000000E+00  0.00000000E+00
