#10-P12/m1                              
   1.00000000030805     
     4.7575614030052993    0.0000000000000000    0.0011151029194128
     0.0000000000000000    4.0237059026062862    0.0000000000000000
    -0.7936699255838162    0.0000000000000000    8.5352057013726572
   Fe   Ge
    12     2
Direct
  0.5000000000000000  0.5000000000000000  0.5000000000000000
  0.2149157681891722  0.0000000000000000  0.4274507115221766
  0.7850842318108278  0.0000000000000000  0.5725492884778305
  0.2053679564464019  0.5000000000000000  0.9263287486960721
  0.7946320435535981  0.5000000000000000  0.0736712513039279
  0.6498537169737304  0.0000000000000000  0.2882614228023002
  0.3501462830262696  0.0000000000000000  0.7117385771976998
  0.0645578532205633  0.0000000000000000  0.1410664048346035
  0.9354421467794367  0.0000000000000000  0.8589335951653894
  0.0767860773736189  0.5000000000000000  0.6405313090208722
  0.9232139226263811  0.5000000000000000  0.3594686909791278
  0.5000000000000000  0.0000000000000000  0.0000000000000000
  0.3569131392324394  0.5000000000000000  0.2121765962813669
  0.6430868607675606  0.5000000000000000  0.7878234037186331
 
  0.00000000E+00  0.00000000E+00  0.00000000E+00
  0.00000000E+00  0.00000000E+00  0.00000000E+00
  0.00000000E+00  0.00000000E+00  0.00000000E+00
  0.00000000E+00  0.00000000E+00  0.00000000E+00
  0.00000000E+00  0.00000000E+00  0.00000000E+00
  0.00000000E+00  0.00000000E+00  0.00000000E+00
  0.00000000E+00  0.00000000E+00  0.00000000E+00
  0.00000000E+00  0.00000000E+00  0.00000000E+00
  0.00000000E+00  0.00000000E+00  0.00000000E+00
  0.00000000E+00  0.00000000E+00  0.00000000E+00
  0.00000000E+00  0.00000000E+00  0.00000000E+00
  0.00000000E+00  0.00000000E+00  0.00000000E+00
  0.00000000E+00  0.00000000E+00  0.00000000E+00
  0.00000000E+00  0.00000000E+00  0.00000000E+00
