#12-C12/m1                              
  0.999999999738100     
    16.6659224880168644    0.0000000000000000    0.0417255638792101
     0.0000000000000000    4.0387388949865217    0.0000000000000000
    -0.9875788707608771    0.0000000000000000    4.8756104912833163
   Fe   Ge
    24     4
Direct
  0.2161080148865366  0.0000000000000000  0.9020796962821365
  0.7838919851134634  0.0000000000000000  0.0979203037178635
  0.7161080148865366  0.5000000000000000  0.9020796962821365
  0.2838919851134634  0.5000000000000000  0.0979203037178635
  0.4977561371282135  0.0000000000000000  0.7516524719499813
  0.5022438628717865  0.0000000000000000  0.2483475280500187
  0.9977561371282135  0.5000000000000000  0.7516524719499813
  0.0022438628717865  0.5000000000000000  0.2483475280500187
  0.6421836771517633  0.0000000000000000  0.1769333299949736
  0.3578163228482296  0.0000000000000000  0.8230666700050264
  0.1421836771517704  0.5000000000000000  0.1769333299949736
  0.8578163228482367  0.5000000000000000  0.8230666700050264
  0.0714517632656850  0.0000000000000000  0.9605347309045698
  0.9285482367343150  0.0000000000000000  0.0394652690954302
  0.5714517632656850  0.5000000000000000  0.9605347309045698
  0.4285482367343150  0.5000000000000000  0.0394652690954302
  0.9300021138333392  0.0000000000000000  0.5426713592329619
  0.0699978861666608  0.0000000000000000  0.4573286407670381
  0.4300021138333392  0.5000000000000000  0.5426713592329619
  0.5699978861666608  0.5000000000000000  0.4573286407670381
  0.2118114583935551  0.0000000000000000  0.3979983625705401
  0.7881885416064449  0.0000000000000000  0.6020016374294599
  0.7118114583935551  0.5000000000000000  0.3979983625705401
  0.2881885416064449  0.5000000000000000  0.6020016374294599
  0.3571234121580602  0.0000000000000000  0.3217776842607520
  0.6428765878419398  0.0000000000000000  0.6782223157392480
  0.8571234121580602  0.5000000000000000  0.3217776842607520
  0.1428765878419398  0.5000000000000000  0.6782223157392480
 
  0.00000000E+00  0.00000000E+00  0.00000000E+00
  0.00000000E+00  0.00000000E+00  0.00000000E+00
  0.00000000E+00  0.00000000E+00  0.00000000E+00
  0.00000000E+00  0.00000000E+00  0.00000000E+00
  0.00000000E+00  0.00000000E+00  0.00000000E+00
  0.00000000E+00  0.00000000E+00  0.00000000E+00
  0.00000000E+00  0.00000000E+00  0.00000000E+00
  0.00000000E+00  0.00000000E+00  0.00000000E+00
  0.00000000E+00  0.00000000E+00  0.00000000E+00
  0.00000000E+00  0.00000000E+00  0.00000000E+00
  0.00000000E+00  0.00000000E+00  0.00000000E+00
  0.00000000E+00  0.00000000E+00  0.00000000E+00
  0.00000000E+00  0.00000000E+00  0.00000000E+00
  0.00000000E+00  0.00000000E+00  0.00000000E+00
  0.00000000E+00  0.00000000E+00  0.00000000E+00
  0.00000000E+00  0.00000000E+00  0.00000000E+00
  0.00000000E+00  0.00000000E+00  0.00000000E+00
  0.00000000E+00  0.00000000E+00  0.00000000E+00
  0.00000000E+00  0.00000000E+00  0.00000000E+00
  0.00000000E+00  0.00000000E+00  0.00000000E+00
  0.00000000E+00  0.00000000E+00  0.00000000E+00
  0.00000000E+00  0.00000000E+00  0.00000000E+00
  0.00000000E+00  0.00000000E+00  0.00000000E+00
  0.00000000E+00  0.00000000E+00  0.00000000E+00
  0.00000000E+00  0.00000000E+00  0.00000000E+00
  0.00000000E+00  0.00000000E+00  0.00000000E+00
  0.00000000E+00  0.00000000E+00  0.00000000E+00
  0.00000000E+00  0.00000000E+00  0.00000000E+00
