#8 (C m) [unique axis c] cell choice 1  
   8.28522000335357     
     0.2726303229142046    0.0000000000000000   -1.2426698162967329
    -0.4984452524992349    0.3568148667507010   -0.0002056901898825
     0.4984452524992349    0.3568148667507010    0.0002056901898825
   Fe   Ta
    16     4
Direct
  0.5861163195434742  0.3974477670055069  0.6025522329944932
  0.3885061291214932  0.5922241968274465  0.8954784697295234
  0.3885061291214932  0.1045215302704766  0.4077758031725535
  0.2043343377850298  0.7989744770517409  0.7015060854905097
  0.2043343377850298  0.2984939145094903  0.2010255229482591
  0.1983518569816990  0.2968699380508180  0.7031300619491820
  0.9976989024632622  0.4987292996922922  0.0126647629480536
  0.9976989024632622  0.9873352370519464  0.5012707003077078
  0.3936677356422827  0.5993211099087201  0.4006788900912799
  0.7919632321958839  0.1922617238882506  0.8077382761117494
  0.7920484311105006  0.6846314744231857  0.8090923248185781
  0.7920484311105006  0.1909076751814219  0.3153685255768143
  0.5872351520421940  0.3969491762012862  0.0944794709037018
  0.5872351520421940  0.9055205290962982  0.6030508237987138
  0.1991218882634909  0.7978262161199533  0.2021737838800467
  0.3925551352037226  0.0988536666107788  0.9011463333892212
  0.5876194276815322  0.9015600926174246  0.0984399073825754
  0.7875020282960328  0.6847998768523177  0.3152001231476823
  0.0022653293990576  0.4882127343249410  0.5117872656750589
  0.0001911417478616  0.0004593643157116  0.9995406356842884
 
  0.00000000E+00  0.00000000E+00  0.00000000E+00
  0.00000000E+00  0.00000000E+00  0.00000000E+00
  0.00000000E+00  0.00000000E+00  0.00000000E+00
  0.00000000E+00  0.00000000E+00  0.00000000E+00
  0.00000000E+00  0.00000000E+00  0.00000000E+00
  0.00000000E+00  0.00000000E+00  0.00000000E+00
  0.00000000E+00  0.00000000E+00  0.00000000E+00
  0.00000000E+00  0.00000000E+00  0.00000000E+00
  0.00000000E+00  0.00000000E+00  0.00000000E+00
  0.00000000E+00  0.00000000E+00  0.00000000E+00
  0.00000000E+00  0.00000000E+00  0.00000000E+00
  0.00000000E+00  0.00000000E+00  0.00000000E+00
  0.00000000E+00  0.00000000E+00  0.00000000E+00
  0.00000000E+00  0.00000000E+00  0.00000000E+00
  0.00000000E+00  0.00000000E+00  0.00000000E+00
  0.00000000E+00  0.00000000E+00  0.00000000E+00
  0.00000000E+00  0.00000000E+00  0.00000000E+00
  0.00000000E+00  0.00000000E+00  0.00000000E+00
  0.00000000E+00  0.00000000E+00  0.00000000E+00
  0.00000000E+00  0.00000000E+00  0.00000000E+00
