#83 (P 4/m)                             
   9.07187999894311     
     0.9973854922419808   -0.0000000012911964   -0.0000000000000000
     0.0000000012911964    0.9973854922419808    0.0000000000000000
    -0.0000000000000000    0.0000000000000000    0.3386293248309383
   Fe   Ta
    16     4
Direct
 -0.0000000000000000 -0.0000000000000000 -0.0000000000000000
  0.7036156382165282  0.0988503253631222 -0.0000000000000000
  0.2963843617834718  0.9011496746368779  0.0000000000000000
  0.9011496746368779  0.7036156382165282 -0.0000000000000000
  0.0988503253631222  0.2963843617834718  0.0000000000000000
  0.4003491167703465  0.7004693768765249  0.5000000000000000
  0.5996508832296534  0.2995306231234751  0.5000000000000000
  0.2995306231234751  0.4003491167703465  0.5000000000000000
  0.7004693768765249  0.5996508832296534  0.5000000000000000
  0.1935285056022969  0.0967316779793449  0.5000000000000000
  0.8064714943977032  0.9032683220206550  0.5000000000000000
  0.9032683220206550  0.1935285056022969  0.5000000000000000
  0.0967316779793449  0.8064714943977032  0.5000000000000000
  0.5000000000000000 -0.0000000000000000  0.5000000000000000
  0.0000000000000000  0.5000000000000000  0.5000000000000000
  0.5000000000000000  0.5000000000000000 -0.0000000000000000
  0.6021311450472706  0.8013973120522215  0.0000000000000000
  0.3978688549527294  0.1986026879477784 -0.0000000000000000
  0.1986026879477784  0.6021311450472706  0.0000000000000000
  0.8013973120522215  0.3978688549527294 -0.0000000000000000
 
  0.00000000E+00  0.00000000E+00  0.00000000E+00
  0.00000000E+00  0.00000000E+00  0.00000000E+00
  0.00000000E+00  0.00000000E+00  0.00000000E+00
  0.00000000E+00  0.00000000E+00  0.00000000E+00
  0.00000000E+00  0.00000000E+00  0.00000000E+00
  0.00000000E+00  0.00000000E+00  0.00000000E+00
  0.00000000E+00  0.00000000E+00  0.00000000E+00
  0.00000000E+00  0.00000000E+00  0.00000000E+00
  0.00000000E+00  0.00000000E+00  0.00000000E+00
  0.00000000E+00  0.00000000E+00  0.00000000E+00
  0.00000000E+00  0.00000000E+00  0.00000000E+00
  0.00000000E+00  0.00000000E+00  0.00000000E+00
  0.00000000E+00  0.00000000E+00  0.00000000E+00
  0.00000000E+00  0.00000000E+00  0.00000000E+00
  0.00000000E+00  0.00000000E+00  0.00000000E+00
  0.00000000E+00  0.00000000E+00  0.00000000E+00
  0.00000000E+00  0.00000000E+00  0.00000000E+00
  0.00000000E+00  0.00000000E+00  0.00000000E+00
  0.00000000E+00  0.00000000E+00  0.00000000E+00
  0.00000000E+00  0.00000000E+00  0.00000000E+00
