#62 (P n m a)                           
   4.77958000223257     
     0.9968173626084227    0.0000000000000000    0.0000000000000000
     0.0000000000000000    0.9969173988720436    0.0000000000000000
     0.0000000000000000    0.0000000000000000    2.2898941575825709
   Fe   Ta
    16     4
Direct
  0.4036354167573550  0.2500000000000000  0.5551103710177498
  0.9036354167573551  0.2500000000000000  0.9448896289822502
  0.5963645832426449  0.7500000000000000  0.4448896289822502
  0.0963645832426449  0.7500000000000000  0.0551103710177498
  0.1266897794414236  0.5016151901070814  0.4072806219940686
  0.6266897794414236  0.9983848098929186  0.0927193780059314
  0.8733102205585764  0.0016151901070743  0.5927193780059314
  0.3733102205585765  0.4983848098929258  0.9072806219940686
  0.8733102205585764  0.4983848098929258  0.5927193780059314
  0.3733102205585765  0.0016151901070743  0.9072806219940686
  0.1266897794414236  0.9983848098929186  0.4072806219940686
  0.6266897794414236  0.5016151901070814  0.0927193780059314
  0.1281023572331414  0.2500000000000000  0.7452032434232800
  0.6281023572331413  0.2500000000000000  0.7547967565767200
  0.8718976427668587  0.7500000000000000  0.2547967565767200
  0.3718976427668586  0.7500000000000000  0.2452032434232801
  0.6443942534160146  0.2500000000000000  0.3367658004642072
  0.1443942534160076  0.2500000000000000  0.1632341995357928
  0.3556057465839924  0.7500000000000000  0.6632341995357928
  0.8556057465839854  0.7500000000000000  0.8367658004642072
 
  0.00000000E+00  0.00000000E+00  0.00000000E+00
  0.00000000E+00  0.00000000E+00  0.00000000E+00
  0.00000000E+00  0.00000000E+00  0.00000000E+00
  0.00000000E+00  0.00000000E+00  0.00000000E+00
  0.00000000E+00  0.00000000E+00  0.00000000E+00
  0.00000000E+00  0.00000000E+00  0.00000000E+00
  0.00000000E+00  0.00000000E+00  0.00000000E+00
  0.00000000E+00  0.00000000E+00  0.00000000E+00
  0.00000000E+00  0.00000000E+00  0.00000000E+00
  0.00000000E+00  0.00000000E+00  0.00000000E+00
  0.00000000E+00  0.00000000E+00  0.00000000E+00
  0.00000000E+00  0.00000000E+00  0.00000000E+00
  0.00000000E+00  0.00000000E+00  0.00000000E+00
  0.00000000E+00  0.00000000E+00  0.00000000E+00
  0.00000000E+00  0.00000000E+00  0.00000000E+00
  0.00000000E+00  0.00000000E+00  0.00000000E+00
  0.00000000E+00  0.00000000E+00  0.00000000E+00
  0.00000000E+00  0.00000000E+00  0.00000000E+00
  0.00000000E+00  0.00000000E+00  0.00000000E+00
  0.00000000E+00  0.00000000E+00  0.00000000E+00
