#6 (P m) [unique axis c]                
   9.15631000044980     
     0.0005597647468867    0.0000000000000000   -0.9967403903459093
    -0.9967052000427072    0.0000000000000000    0.0000195438683099
     0.0000000000000000    0.3302253258182764    0.0000000000000000
   Fe   Ta
    16     4
Direct
  0.5040622888900219  0.5071378042544034 -0.0000000000000000
  0.3006856193376068  0.9027086598088279 -0.0000000000000000
  0.3066932291506057  0.4152418501339060  0.5000000000000000
  0.7976616595538980  0.9062576340912891  0.5000000000000000
  0.5008475409656399  0.0041517619912319  0.5000000000000000
  0.3939817034736545  0.7022074977545191  0.5000000000000000
  0.6116841030630953  0.3113078398038051  0.5000000000000000
  0.8929575655116697  0.2071453320304616  0.5000000000000000
  0.7011012563488269  0.1080749819880239 -0.0000000000000000
  0.8016616383853649  0.4089003946075139 -0.0000000000000000
  0.9954716371228282  0.5197402950283103  0.5000000000000000
  0.1050455463438711  0.7995501504905972  0.5000000000000000
  0.9003089107522859  0.7064981689211188  0.0000000000000000
  0.7046988877728035  0.5998004144099451  0.5000000000000000
  0.2025830551800243  0.1066193307439531  0.5000000000000000
  0.2006965172166306  0.6083349958899186  0.0000000000000000
  0.0961572164786290  0.3184448270365616 -0.0000000000000000
  0.4096759837904418  0.2082489973248623 -0.0000000000000000
  0.5990334855632004  0.8015050271306093 -0.0000000000000000
 -0.0001778449010964  0.0000140365601453 -0.0000000000000000
 
  0.00000000E+00  0.00000000E+00  0.00000000E+00
  0.00000000E+00  0.00000000E+00  0.00000000E+00
  0.00000000E+00  0.00000000E+00  0.00000000E+00
  0.00000000E+00  0.00000000E+00  0.00000000E+00
  0.00000000E+00  0.00000000E+00  0.00000000E+00
  0.00000000E+00  0.00000000E+00  0.00000000E+00
  0.00000000E+00  0.00000000E+00  0.00000000E+00
  0.00000000E+00  0.00000000E+00  0.00000000E+00
  0.00000000E+00  0.00000000E+00  0.00000000E+00
  0.00000000E+00  0.00000000E+00  0.00000000E+00
  0.00000000E+00  0.00000000E+00  0.00000000E+00
  0.00000000E+00  0.00000000E+00  0.00000000E+00
  0.00000000E+00  0.00000000E+00  0.00000000E+00
  0.00000000E+00  0.00000000E+00  0.00000000E+00
  0.00000000E+00  0.00000000E+00  0.00000000E+00
  0.00000000E+00  0.00000000E+00  0.00000000E+00
  0.00000000E+00  0.00000000E+00  0.00000000E+00
  0.00000000E+00  0.00000000E+00  0.00000000E+00
  0.00000000E+00  0.00000000E+00  0.00000000E+00
  0.00000000E+00  0.00000000E+00  0.00000000E+00
