#166 (R -3 m)                           
   4.14202999634973     
     0.0000055139448400    0.5759526275556761   -2.0391907503707887
     0.4987992104450680   -0.2879818941917117   -2.0391887017897914
    -0.4987867926125100   -0.2879810922583657   -2.0391906550576167
   Fe   Ta
     8     2
Direct
  0.9999938190561454  0.0000124283995461  0.9999938157921892
  0.4999948139387416  0.5000105950946288  0.4999948162309737
  0.1026462713143930  0.1026635922752505  0.1026462328446356
  0.8973406470995015  0.8973567455656591  0.8973406798015134
  0.1986797424194823  0.1986947152438190  0.1986797465181981
  0.8013075937843206  0.8013250990082890  0.8013075908935773
  0.6999794007822793  0.6999961916071862  0.6999794505676782
  0.3000090888554397  0.3000286133767900  0.3000090453992215
  0.4005742203294346  0.4005989382172601  0.4005742148074866
  0.5994114924202583  0.5994238712115720  0.5994114971445010
 
  0.00000000E+00  0.00000000E+00  0.00000000E+00
  0.00000000E+00  0.00000000E+00  0.00000000E+00
  0.00000000E+00  0.00000000E+00  0.00000000E+00
  0.00000000E+00  0.00000000E+00  0.00000000E+00
  0.00000000E+00  0.00000000E+00  0.00000000E+00
  0.00000000E+00  0.00000000E+00  0.00000000E+00
  0.00000000E+00  0.00000000E+00  0.00000000E+00
  0.00000000E+00  0.00000000E+00  0.00000000E+00
  0.00000000E+00  0.00000000E+00  0.00000000E+00
  0.00000000E+00  0.00000000E+00  0.00000000E+00
