#2 (P -1)                               
   4.82389000130136     
     0.9979579344387900   -0.0005357880360815    0.0000592109420214
     0.1972055192241187    1.3190308281468315   -0.0006963107528082
     0.1573214257521313    0.3688594904322565    1.6908034168875727
   Fe   Ta
    16     4
Direct
 -0.0000000000000000  0.0000000000000000  0.5000000000000000
 -0.0000000000000000  0.0000000000000000 -0.0000000000000000
  0.9105011587475941  0.3939089555314477  0.4274145736080185
  0.0894988412524060  0.6060910444685594  0.5725854263919817
  0.5903794478091554  0.4949481661243615  0.7119775085581860
  0.4096205521908444  0.5050518338756387  0.2880224914418141
  0.0648488957265700  0.8082506520586590  0.2800498340294953
  0.9351511042734300  0.1917493479413412  0.7199501659705047
  0.3266229968278335  0.6613894761163248  0.0037871466210738
  0.6733770031721663  0.3386105238836751  0.9962128533789263
  0.8666643344178635  0.5774153719123973  0.1388250582978083
  0.1333356655821364  0.4225846280876026  0.8611749417021918
  0.4520194695307980  0.1020295796572380  0.8684603978321908
  0.5479805304692019  0.8979704203427621  0.1315396021678092
  0.2756451748625049  0.8468754871420504  0.7256553961180390
  0.7243548251374952  0.1531245128579496  0.2743446038819541
  0.5608400332021762  0.7810081509810289  0.4467499193115183
  0.4391599667978236  0.2189918490189711  0.5532500806884818
  0.2106574398761043  0.2197697740033379  0.1834170948559063
  0.7893425601238957  0.7802302259966620  0.8165829051440936
 
  0.00000000E+00  0.00000000E+00  0.00000000E+00
  0.00000000E+00  0.00000000E+00  0.00000000E+00
  0.00000000E+00  0.00000000E+00  0.00000000E+00
  0.00000000E+00  0.00000000E+00  0.00000000E+00
  0.00000000E+00  0.00000000E+00  0.00000000E+00
  0.00000000E+00  0.00000000E+00  0.00000000E+00
  0.00000000E+00  0.00000000E+00  0.00000000E+00
  0.00000000E+00  0.00000000E+00  0.00000000E+00
  0.00000000E+00  0.00000000E+00  0.00000000E+00
  0.00000000E+00  0.00000000E+00  0.00000000E+00
  0.00000000E+00  0.00000000E+00  0.00000000E+00
  0.00000000E+00  0.00000000E+00  0.00000000E+00
  0.00000000E+00  0.00000000E+00  0.00000000E+00
  0.00000000E+00  0.00000000E+00  0.00000000E+00
  0.00000000E+00  0.00000000E+00  0.00000000E+00
  0.00000000E+00  0.00000000E+00  0.00000000E+00
  0.00000000E+00  0.00000000E+00  0.00000000E+00
  0.00000000E+00  0.00000000E+00  0.00000000E+00
  0.00000000E+00  0.00000000E+00  0.00000000E+00
  0.00000000E+00  0.00000000E+00  0.00000000E+00
