#129 (P 4/n m m) [origin choice 2]      
   4.09776000160834     
     0.9957849431844162    0.0000000000000000    0.0000000000000000
     0.0000000000000000    0.9957849431844162    0.0000000000000000
    -0.0000000000000000    0.0000000000000000    3.6645066537664697
   Fe   Ta
    16     4
Direct
  0.7500000000000000  0.2500000000000000  0.7967778488283390
  0.2500000000000000  0.7500000000000000  0.2031365300915889
  0.7500000000000000  0.2500000000000000  0.2031365300915889
  0.2500000000000000  0.7500000000000000  0.7967778488283390
  0.7500000000000000  0.2500000000000000  0.9999635702698234
  0.2500000000000000  0.7500000000000000  0.9999635702698234
  0.2500000000000000  0.2500000000000000  0.6943061476630270
  0.7500000000000000  0.7500000000000000  0.3056149531655969
  0.2500000000000000  0.2500000000000000  0.8967432594033650
  0.7500000000000000  0.7500000000000000  0.1032062177148501
  0.7500000000000000  0.2500000000000000  0.4067667989635584
  0.2500000000000000  0.7500000000000000  0.5931551882345303
  0.7500000000000000  0.2500000000000000  0.5931551882345303
  0.2500000000000000  0.7500000000000000  0.4067667989635584
  0.2500000000000000  0.2500000000000000  0.5005478202535587
  0.7500000000000000  0.7500000000000000  0.4993429128893665
  0.2500000000000000  0.2500000000000000  0.0994335694073215
  0.7500000000000000  0.7500000000000000  0.9004904336051768
  0.2500000000000000  0.2500000000000000  0.3062125272534185
  0.7500000000000000  0.7500000000000000  0.6936922858686304
 
  0.00000000E+00  0.00000000E+00  0.00000000E+00
  0.00000000E+00  0.00000000E+00  0.00000000E+00
  0.00000000E+00  0.00000000E+00  0.00000000E+00
  0.00000000E+00  0.00000000E+00  0.00000000E+00
  0.00000000E+00  0.00000000E+00  0.00000000E+00
  0.00000000E+00  0.00000000E+00  0.00000000E+00
  0.00000000E+00  0.00000000E+00  0.00000000E+00
  0.00000000E+00  0.00000000E+00  0.00000000E+00
  0.00000000E+00  0.00000000E+00  0.00000000E+00
  0.00000000E+00  0.00000000E+00  0.00000000E+00
  0.00000000E+00  0.00000000E+00  0.00000000E+00
  0.00000000E+00  0.00000000E+00  0.00000000E+00
  0.00000000E+00  0.00000000E+00  0.00000000E+00
  0.00000000E+00  0.00000000E+00  0.00000000E+00
  0.00000000E+00  0.00000000E+00  0.00000000E+00
  0.00000000E+00  0.00000000E+00  0.00000000E+00
  0.00000000E+00  0.00000000E+00  0.00000000E+00
  0.00000000E+00  0.00000000E+00  0.00000000E+00
  0.00000000E+00  0.00000000E+00  0.00000000E+00
  0.00000000E+00  0.00000000E+00  0.00000000E+00
