#62 (P n m a)                           
   7.91132999631780     
     0.9968704322338237    0.0000000000000000    0.0000000000000000
     0.0000000000000000    0.6071930543013687   -0.0000000000000000
     0.0000000000000000    0.0000000000000000    0.8219623352119866
   Fe   Ta
    16     4
Direct
  0.2583978135122957  0.2500000000000000  0.4028913359033198
  0.7583978135122957  0.2500000000000000  0.0971086640966801
  0.7416021864877043  0.7500000000000000  0.5971086640966803
  0.2416021864877043  0.7500000000000000  0.9028913359033197
  0.0837791617133529  0.4880390063555501  0.1514015756563321
  0.5837791617133531  0.0119609936444497  0.3485984243436679
  0.9162208382866469  0.9880390063555503  0.8485984243436677
  0.4162208382866471  0.5119609936444497  0.6514015756563323
  0.9162208382866469  0.5119609936444497  0.8485984243436677
  0.4162208382866471  0.9880390063555503  0.6514015756563323
  0.0837791617133529  0.0119609936444497  0.1514015756563321
  0.5837791617133531  0.4880390063555501  0.3485984243436679
  0.6586638298805025  0.2500000000000000  0.7401429255951436
  0.1586638298805025  0.2500000000000000  0.7598570744048564
  0.3413361701194975  0.7500000000000000  0.2598570744048563
  0.8413361701194975  0.7500000000000000  0.2401429255951436
  0.8938856619091211  0.2500000000000000  0.4620506706270630
  0.3938856619091211  0.2500000000000000  0.0379493293729371
  0.1061143380908789  0.7500000000000000  0.5379493293729372
  0.6061143380908789  0.7500000000000000  0.9620506706270628
 
  0.00000000E+00  0.00000000E+00  0.00000000E+00
  0.00000000E+00  0.00000000E+00  0.00000000E+00
  0.00000000E+00  0.00000000E+00  0.00000000E+00
  0.00000000E+00  0.00000000E+00  0.00000000E+00
  0.00000000E+00  0.00000000E+00  0.00000000E+00
  0.00000000E+00  0.00000000E+00  0.00000000E+00
  0.00000000E+00  0.00000000E+00  0.00000000E+00
  0.00000000E+00  0.00000000E+00  0.00000000E+00
  0.00000000E+00  0.00000000E+00  0.00000000E+00
  0.00000000E+00  0.00000000E+00  0.00000000E+00
  0.00000000E+00  0.00000000E+00  0.00000000E+00
  0.00000000E+00  0.00000000E+00  0.00000000E+00
  0.00000000E+00  0.00000000E+00  0.00000000E+00
  0.00000000E+00  0.00000000E+00  0.00000000E+00
  0.00000000E+00  0.00000000E+00  0.00000000E+00
  0.00000000E+00  0.00000000E+00  0.00000000E+00
  0.00000000E+00  0.00000000E+00  0.00000000E+00
  0.00000000E+00  0.00000000E+00  0.00000000E+00
  0.00000000E+00  0.00000000E+00  0.00000000E+00
  0.00000000E+00  0.00000000E+00  0.00000000E+00
