#129 (P 4/n m m) [origin choice 2]      
   4.09222999932664     
     0.9972430637086349    0.0000000000000000   -0.0000000000000000
     0.0000000000000000    0.9972430637086349    0.0000000000000000
    -0.0000000000000000   -0.0000000000000000    3.6701525407429760
   Fe   Ta
    16     4
Direct
  0.7500000000000000  0.2500000000000000  0.2968839456221787
  0.2500000000000000  0.7500000000000000  0.7031994865381486
  0.7500000000000000  0.2500000000000000  0.7031994865381486
  0.2500000000000000  0.7500000000000000  0.2968839456221787
  0.7500000000000000  0.2500000000000000  0.5000390373698009
  0.2500000000000000  0.7500000000000000  0.5000390373698009
  0.2500000000000000  0.2500000000000000  0.8056713783995034
  0.7500000000000000  0.7500000000000000  0.1943999097420391
  0.2500000000000000  0.2500000000000000  0.6032169884991183
  0.7500000000000000  0.7500000000000000  0.3968369200503720
  0.7500000000000000  0.2500000000000000  0.9068349196484581
  0.2500000000000000  0.7500000000000000  0.0932416942088444
  0.7500000000000000  0.2500000000000000  0.0932416942088444
  0.2500000000000000  0.7500000000000000  0.9068349196484581
  0.2500000000000000  0.2500000000000000  0.9994588232683502
  0.7500000000000000  0.7500000000000000  0.0006479408285631
  0.2500000000000000  0.2500000000000000  0.4005623390505459
  0.7500000000000000  0.7500000000000000  0.5995150536599185
  0.2500000000000000  0.2500000000000000  0.1938118052779507
  0.7500000000000000  0.7500000000000000  0.8062906744487857
 
  0.00000000E+00  0.00000000E+00  0.00000000E+00
  0.00000000E+00  0.00000000E+00  0.00000000E+00
  0.00000000E+00  0.00000000E+00  0.00000000E+00
  0.00000000E+00  0.00000000E+00  0.00000000E+00
  0.00000000E+00  0.00000000E+00  0.00000000E+00
  0.00000000E+00  0.00000000E+00  0.00000000E+00
  0.00000000E+00  0.00000000E+00  0.00000000E+00
  0.00000000E+00  0.00000000E+00  0.00000000E+00
  0.00000000E+00  0.00000000E+00  0.00000000E+00
  0.00000000E+00  0.00000000E+00  0.00000000E+00
  0.00000000E+00  0.00000000E+00  0.00000000E+00
  0.00000000E+00  0.00000000E+00  0.00000000E+00
  0.00000000E+00  0.00000000E+00  0.00000000E+00
  0.00000000E+00  0.00000000E+00  0.00000000E+00
  0.00000000E+00  0.00000000E+00  0.00000000E+00
  0.00000000E+00  0.00000000E+00  0.00000000E+00
  0.00000000E+00  0.00000000E+00  0.00000000E+00
  0.00000000E+00  0.00000000E+00  0.00000000E+00
  0.00000000E+00  0.00000000E+00  0.00000000E+00
  0.00000000E+00  0.00000000E+00  0.00000000E+00
